\ Model ExtendedSetCover
\ LP format - for model browsing. Use MPS format to capture full model detail.
\ Signature: 0xe60cf404486fb399
Minimize
  6.293318887336954 x0 + 4.591575055903808 x1 + 2.684930095316357 x2
   + 2.813656188140707 x3 + 3.12726056226641 x4 + 3.658732833376446 x5
   + 3.066749126850207 x6 + 12.86229958253484 x7 + 16.6738868752129 x8
   + 22.43519020582951 x9 + 26.96049791058311 x10 + 33.91572534459126 x11
   + 38.84848584807963 x12 + 42.81171570368237 x13 + 46.67413614914085 x14
   + 50.90630850121757 x15 - 2.94403149387335 x16 - 4.569258831219176 x17
   - 7.422119395273223 x18 - 1.366595356258397 x19 - 0.7664318456254051 x20
   - 3.266078965316828 x21 + 8.28058472684433 x22 + 11.57564655753294 x23
   + 17.14838197471888 x24 + 21.26759517162452 x25 + 28.16366447473764 x26
   + 32.72305271393931 x27 + 36.23373869829891 x28 + 39.6574392313471 x29
   + 43.51150435527329 x30 - 3.793526677850338 x31 - 5.52008087704982 x32
   - 1.83256552174882 x33 - 0.1516734403637283 x34 - 1.500596649166391 x35
   + 8.724259669663631 x36 + 11.68135635487817 x37 + 16.60715051863903 x38
   + 20.20062494756269 x39 + 26.39878983412387 x40 + 30.44231216522038 x41
   + 33.51657448324039 x42 + 36.51843133750982 x43 + 39.94672207845948 x44
   - 3.793526677850336 x45 - 1.577159409577579 x46 + 0.6548195247303474 x47
   - 0.4520399683549758 x48 + 10.00270658706539 x49 + 11.54572877094972 x50
   + 15.7819997612039 x51 + 18.82044784450476 x52 + 24.31228712475603 x53
   + 27.81661760929627 x54 + 30.42563679420254 x55 + 32.97468593832016 x56
   + 35.94729354417628 x57 + 1.110619587208296 x58 + 2.690676083853314 x59
   + 0.5725624089817187 x60 + 9.313059046438941 x61 + 11.15137561515307 x62
   + 13.57346882952077 x63 + 15.9242269892965 x64 + 20.76746824927798 x65
   + 23.66052479283223 x66 + 25.69284589969687 x67 + 27.68015845220797 x68
   + 30.11764944202862 x69 + 4.290563420808277 x70 + 2.184012194947012 x71
   + 8.229673012111208 x72 + 9.313059046438939 x73 + 11.86110278936395 x74
   + 12.44418562427219 x75 + 16.63461555309723 x76 + 18.84183487032526 x77
   + 20.20708714384826 x78 + 21.53851086692412 x79 + 23.35844974909337 x80
   + 4.253662884320165 x81 + 8.691177487665238 x82 + 8.229673012111206 x83
   + 9.92638610042227 x84 + 10.78657191813213 x85 + 13.19050226721223 x86
   + 14.67222210596422 x87 + 15.36915103489002 x88 + 16.02906916053929 x89
   + 17.17900661593653 x90 + 9.157809149378796 x91 + 8.325656445094193 x92
   + 8.229673012111208 x93 + 8.428356106156087 x94 + 10.94911991248454 x95
   + 10.66156831417451 x96 + 10.69003824539026 x97 + 10.65994157889902 x98
   + 11.06762058400429 x99 + 4.39965865778148 x100 + 2.644224238931633 x101
   + 0.3881206011044571 x102 + 2.217415523353361 x103
   + 1.433681375879532 x104 - 0.8473275941550984 x105
   - 2.248931551660792 x106 - 3.275329246223577 x107
   + 4.679451926021698 x108 + 2.644224238931615 x109
   + 3.00778834246593 x110 + 2.152672790717725 x111
   + 0.991657852886946 x112 - 1.329219541771002 x113
   - 2.488687426838204 x114 + 2.336231877373219 x115
   + 1.395996182580501 x116 - 1.06012912156677 x117
   - 1.952733618169845 x118 - 3.220722864712799 x119
   - 5.99749065060951 x120 + 2.336231877373219 x121
   - 0.0588107622631675 x122 - 2.518428380270251 x123
   - 4.290471439107225 x124 - 5.950831182508293 x125
   - 2.944031493873386 x126 - 3.703761178151868 x127
   - 5.933086157424935 x128 - 8.264737572250816 x129
   - 0.9167059533325097 x130 - 3.505578024093004 x131
   - 6.638083986637776 x132 - 0.5164924149648447 x133
   - 3.39824063558832 x134 - 5.550516112039722 x135
Subject To
 c0: x0 + x1 + x2 + x3 + x4 + x5 + x6 + x7 + x8 + x9 + x10 + x11 + x12
   + x13 + x14 + x15 = 1
 c1: x0 + x1 + x2 + x3 + x4 + x5 + x6 + x7 + x8 + x9 + x10 + x11 + x12
   + x13 + x14 + x15 + x16 + x17 + x18 + x19 + x20 + x21 + x22 + x23 + x24
   + x25 + x26 + x27 + x28 + x29 + x30 = 1
 c2: x0 + x1 + x2 + x3 + x4 + x5 + x6 + x7 + x8 + x9 + x10 + x11 + x12
   + x13 + x14 + x15 + x16 + x17 + x18 + x19 + x20 + x21 + x22 + x23 + x24
   + x25 + x26 + x27 + x28 + x29 + x30 + x31 + x32 + x33 + x34 + x35 + x36
   + x37 + x38 + x39 + x40 + x41 + x42 + x43 + x44 = 1
 c3: x0 + x1 + x2 + x3 + x4 + x5 + x6 + x7 + x8 + x9 + x10 + x11 + x12
   + x13 + x14 + x15 + x16 + x17 + x18 + x19 + x20 + x21 + x22 + x23 + x24
   + x25 + x26 + x27 + x28 + x29 + x30 + x31 + x32 + x33 + x34 + x35 + x36
   + x37 + x38 + x39 + x40 + x41 + x42 + x43 + x44 + x45 + x46 + x47 + x48
   + x49 + x50 + x51 + x52 + x53 + x54 + x55 + x56 + x57 = 1
 c4: x0 + x1 + x2 + x3 + x4 + x5 + x6 + x7 + x8 + x9 + x10 + x11 + x12
   + x13 + x14 + x15 + x16 + x17 + x18 + x19 + x20 + x21 + x22 + x23 + x24
   + x25 + x26 + x27 + x28 + x29 + x30 + x31 + x32 + x33 + x34 + x35 + x36
   + x37 + x38 + x39 + x40 + x41 + x42 + x43 + x44 + x45 + x46 + x47 + x48
   + x49 + x50 + x51 + x52 + x53 + x54 + x55 + x56 + x57 + x58 + x59 + x60
   + x61 + x62 + x63 + x64 + x65 + x66 + x67 + x68 + x69 = 1
 c5: x1 + x2 + x3 + x4 + x5 + x6 + x7 + x8 + x9 + x10 + x11 + x12 + x13
   + x14 + x15 + x16 + x17 + x18 + x19 + x20 + x21 + x22 + x23 + x24 + x25
   + x26 + x27 + x28 + x29 + x30 + x31 + x32 + x33 + x34 + x35 + x36 + x37
   + x38 + x39 + x40 + x41 + x42 + x43 + x44 + x45 + x46 + x47 + x48 + x49
   + x50 + x51 + x52 + x53 + x54 + x55 + x56 + x57 + x58 + x59 + x60 + x61
   + x62 + x63 + x64 + x65 + x66 + x67 + x68 + x69 + x70 + x71 + x72 + x73
   + x74 + x75 + x76 + x77 + x78 + x79 + x80 = 1
 c6: x2 + x3 + x4 + x5 + x6 + x7 + x8 + x9 + x10 + x11 + x12 + x13 + x14
   + x15 + x17 + x18 + x19 + x20 + x21 + x22 + x23 + x24 + x25 + x26 + x27
   + x28 + x29 + x30 + x31 + x32 + x33 + x34 + x35 + x36 + x37 + x38 + x39
   + x40 + x41 + x42 + x43 + x44 + x45 + x46 + x47 + x48 + x49 + x50 + x51
   + x52 + x53 + x54 + x55 + x56 + x57 + x58 + x59 + x60 + x61 + x62 + x63
   + x64 + x65 + x66 + x67 + x68 + x69 + x70 + x71 + x72 + x73 + x74 + x75
   + x76 + x77 + x78 + x79 + x80 + x81 + x82 + x83 + x84 + x85 + x86 + x87
   + x88 + x89 + x90 = 1
 c7: x3 + x4 + x5 + x6 + x7 + x8 + x9 + x10 + x11 + x12 + x13 + x14 + x15
   + x18 + x19 + x20 + x21 + x22 + x23 + x24 + x25 + x26 + x27 + x28 + x29
   + x30 + x32 + x33 + x34 + x35 + x36 + x37 + x38 + x39 + x40 + x41 + x42
   + x43 + x44 + x45 + x46 + x47 + x48 + x49 + x50 + x51 + x52 + x53 + x54
   + x55 + x56 + x57 + x58 + x59 + x60 + x61 + x62 + x63 + x64 + x65 + x66
   + x67 + x68 + x69 + x70 + x71 + x72 + x73 + x74 + x75 + x76 + x77 + x78
   + x79 + x80 + x81 + x82 + x83 + x84 + x85 + x86 + x87 + x88 + x89 + x90
   + x91 + x92 + x93 + x94 + x95 + x96 + x97 + x98 + x99 = 1
 c8: x4 + x5 + x6 + x7 + x8 + x9 + x10 + x11 + x12 + x13 + x14 + x15 + x19
   + x20 + x21 + x22 + x23 + x24 + x25 + x26 + x27 + x28 + x29 + x30 + x33
   + x34 + x35 + x36 + x37 + x38 + x39 + x40 + x41 + x42 + x43 + x44 + x46
   + x47 + x48 + x49 + x50 + x51 + x52 + x53 + x54 + x55 + x56 + x57 + x58
   + x59 + x60 + x61 + x62 + x63 + x64 + x65 + x66 + x67 + x68 + x69 + x70
   + x71 + x72 + x73 + x74 + x75 + x76 + x77 + x78 + x79 + x80 + x81 + x82
   + x83 + x84 + x85 + x86 + x87 + x88 + x89 + x90 + x91 + x92 + x93 + x94
   + x95 + x96 + x97 + x98 + x99 + x100 + x101 + x102 + x103 + x104 + x105
   + x106 + x107 = 1
 c9: x5 + x6 + x7 + x8 + x9 + x10 + x11 + x12 + x13 + x14 + x15 + x20 + x21
   + x22 + x23 + x24 + x25 + x26 + x27 + x28 + x29 + x30 + x34 + x35 + x36
   + x37 + x38 + x39 + x40 + x41 + x42 + x43 + x44 + x47 + x48 + x49 + x50
   + x51 + x52 + x53 + x54 + x55 + x56 + x57 + x59 + x60 + x61 + x62 + x63
   + x64 + x65 + x66 + x67 + x68 + x69 + x70 + x71 + x72 + x73 + x74 + x75
   + x76 + x77 + x78 + x79 + x80 + x81 + x82 + x83 + x84 + x85 + x86 + x87
   + x88 + x89 + x90 + x91 + x92 + x93 + x94 + x95 + x96 + x97 + x98 + x99
   + x100 + x101 + x102 + x103 + x104 + x105 + x106 + x107 + x108 + x109
   + x110 + x111 + x112 + x113 + x114 = 1
 c10: x6 + x7 + x8 + x9 + x10 + x11 + x12 + x13 + x14 + x15 + x21 + x22
   + x23 + x24 + x25 + x26 + x27 + x28 + x29 + x30 + x35 + x36 + x37 + x38
   + x39 + x40 + x41 + x42 + x43 + x44 + x48 + x49 + x50 + x51 + x52 + x53
   + x54 + x55 + x56 + x57 + x60 + x61 + x62 + x63 + x64 + x65 + x66 + x67
   + x68 + x69 + x71 + x72 + x73 + x74 + x75 + x76 + x77 + x78 + x79 + x80
   + x81 + x82 + x83 + x84 + x85 + x86 + x87 + x88 + x89 + x90 + x91 + x92
   + x93 + x94 + x95 + x96 + x97 + x98 + x99 + x100 + x101 + x102 + x103
   + x104 + x105 + x106 + x107 + x108 + x109 + x110 + x111 + x112 + x113
   + x114 + x115 + x116 + x117 + x118 + x119 + x120 = 1
 c11: x7 + x8 + x9 + x10 + x11 + x12 + x13 + x14 + x15 + x22 + x23 + x24
   + x25 + x26 + x27 + x28 + x29 + x30 + x36 + x37 + x38 + x39 + x40 + x41
   + x42 + x43 + x44 + x49 + x50 + x51 + x52 + x53 + x54 + x55 + x56 + x57
   + x61 + x62 + x63 + x64 + x65 + x66 + x67 + x68 + x69 + x72 + x73 + x74
   + x75 + x76 + x77 + x78 + x79 + x80 + x82 + x83 + x84 + x85 + x86 + x87
   + x88 + x89 + x90 + x91 + x92 + x93 + x94 + x95 + x96 + x97 + x98 + x99
   + x100 + x101 + x102 + x103 + x104 + x105 + x106 + x107 + x108 + x109
   + x110 + x111 + x112 + x113 + x114 + x115 + x116 + x117 + x118 + x119
   + x120 + x121 + x122 + x123 + x124 + x125 = 1
 c12: x8 + x9 + x10 + x11 + x12 + x13 + x14 + x15 + x23 + x24 + x25 + x26
   + x27 + x28 + x29 + x30 + x37 + x38 + x39 + x40 + x41 + x42 + x43 + x44
   + x50 + x51 + x52 + x53 + x54 + x55 + x56 + x57 + x62 + x63 + x64 + x65
   + x66 + x67 + x68 + x69 + x73 + x74 + x75 + x76 + x77 + x78 + x79 + x80
   + x83 + x84 + x85 + x86 + x87 + x88 + x89 + x90 + x92 + x93 + x94 + x95
   + x96 + x97 + x98 + x99 + x100 + x101 + x102 + x103 + x104 + x105 + x106
   + x107 + x108 + x109 + x110 + x111 + x112 + x113 + x114 + x115 + x116
   + x117 + x118 + x119 + x120 + x121 + x122 + x123 + x124 + x125 + x126
   + x127 + x128 + x129 = 1
 c13: x9 + x10 + x11 + x12 + x13 + x14 + x15 + x24 + x25 + x26 + x27 + x28
   + x29 + x30 + x38 + x39 + x40 + x41 + x42 + x43 + x44 + x51 + x52 + x53
   + x54 + x55 + x56 + x57 + x63 + x64 + x65 + x66 + x67 + x68 + x69 + x74
   + x75 + x76 + x77 + x78 + x79 + x80 + x84 + x85 + x86 + x87 + x88 + x89
   + x90 + x93 + x94 + x95 + x96 + x97 + x98 + x99 + x101 + x102 + x103
   + x104 + x105 + x106 + x107 + x108 + x109 + x110 + x111 + x112 + x113
   + x114 + x115 + x116 + x117 + x118 + x119 + x120 + x121 + x122 + x123
   + x124 + x125 + x126 + x127 + x128 + x129 + x130 + x131 + x132 = 1
 c14: x10 + x11 + x12 + x13 + x14 + x15 + x25 + x26 + x27 + x28 + x29 + x30
   + x39 + x40 + x41 + x42 + x43 + x44 + x52 + x53 + x54 + x55 + x56 + x57
   + x64 + x65 + x66 + x67 + x68 + x69 + x75 + x76 + x77 + x78 + x79 + x80
   + x85 + x86 + x87 + x88 + x89 + x90 + x94 + x95 + x96 + x97 + x98 + x99
   + x102 + x103 + x104 + x105 + x106 + x107 + x109 + x110 + x111 + x112
   + x113 + x114 + x115 + x116 + x117 + x118 + x119 + x120 + x121 + x122
   + x123 + x124 + x125 + x126 + x127 + x128 + x129 + x130 + x131 + x132
   + x133 + x134 = 1
 c15: x11 + x12 + x13 + x14 + x15 + x26 + x27 + x28 + x29 + x30 + x40 + x41
   + x42 + x43 + x44 + x53 + x54 + x55 + x56 + x57 + x65 + x66 + x67 + x68
   + x69 + x76 + x77 + x78 + x79 + x80 + x86 + x87 + x88 + x89 + x90 + x95
   + x96 + x97 + x98 + x99 + x103 + x104 + x105 + x106 + x107 + x110 + x111
   + x112 + x113 + x114 + x116 + x117 + x118 + x119 + x120 + x121 + x122
   + x123 + x124 + x125 + x126 + x127 + x128 + x129 + x130 + x131 + x132
   + x133 + x134 + x135 = 1
 c16: x12 + x13 + x14 + x15 + x27 + x28 + x29 + x30 + x41 + x42 + x43 + x44
   + x54 + x55 + x56 + x57 + x66 + x67 + x68 + x69 + x77 + x78 + x79 + x80
   + x87 + x88 + x89 + x90 + x96 + x97 + x98 + x99 + x104 + x105 + x106
   + x107 + x111 + x112 + x113 + x114 + x117 + x118 + x119 + x120 + x122
   + x123 + x124 + x125 + x126 + x127 + x128 + x129 + x130 + x131 + x132
   + x133 + x134 + x135 = 1
 c17: x13 + x14 + x15 + x28 + x29 + x30 + x42 + x43 + x44 + x55 + x56 + x57
   + x67 + x68 + x69 + x78 + x79 + x80 + x88 + x89 + x90 + x97 + x98 + x99
   + x105 + x106 + x107 + x112 + x113 + x114 + x118 + x119 + x120 + x123
   + x124 + x125 + x127 + x128 + x129 + x130 + x131 + x132 + x133 + x134
   + x135 = 1
 c18: x14 + x15 + x29 + x30 + x43 + x44 + x56 + x57 + x68 + x69 + x79 + x80
   + x89 + x90 + x98 + x99 + x106 + x107 + x113 + x114 + x119 + x120 + x124
   + x125 + x128 + x129 + x131 + x132 + x133 + x134 + x135 = 1
 c19: x15 + x30 + x44 + x57 + x69 + x80 + x90 + x99 + x107 + x114 + x120
   + x125 + x129 + x132 + x134 + x135 = 1
 ntot: x0 + x1 + x2 + x3 + x4 + x5 + x6 + x7 + x8 + x9 + x10 + x11 + x12
   + x13 + x14 + x15 + x16 + x17 + x18 + x19 + x20 + x21 + x22 + x23 + x24
   + x25 + x26 + x27 + x28 + x29 + x30 + x31 + x32 + x33 + x34 + x35 + x36
   + x37 + x38 + x39 + x40 + x41 + x42 + x43 + x44 + x45 + x46 + x47 + x48
   + x49 + x50 + x51 + x52 + x53 + x54 + x55 + x56 + x57 + x58 + x59 + x60
   + x61 + x62 + x63 + x64 + x65 + x66 + x67 + x68 + x69 + x70 + x71 + x72
   + x73 + x74 + x75 + x76 + x77 + x78 + x79 + x80 + x81 + x82 + x83 + x84
   + x85 + x86 + x87 + x88 + x89 + x90 + x91 + x92 + x93 + x94 + x95 + x96
   + x97 + x98 + x99 + x100 + x101 + x102 + x103 + x104 + x105 + x106
   + x107 + x108 + x109 + x110 + x111 + x112 + x113 + x114 + x115 + x116
   + x117 + x118 + x119 + x120 + x121 + x122 + x123 + x124 + x125 + x126
   + x127 + x128 + x129 + x130 + x131 + x132 + x133 + x134 + x135 <= 10
Bounds
 x0 <= 1
 x1 <= 1
 x2 <= 1
 x3 <= 1
 x4 <= 1
 x5 <= 1
 x6 <= 1
 x7 <= 1
 x8 <= 1
 x9 <= 1
 x10 <= 1
 x11 <= 1
 x12 <= 1
 x13 <= 1
 x14 <= 1
 x15 <= 1
 x16 <= 1
 x17 <= 1
 x18 <= 1
 x19 <= 1
 x20 <= 1
 x21 <= 1
 x22 <= 1
 x23 <= 1
 x24 <= 1
 x25 <= 1
 x26 <= 1
 x27 <= 1
 x28 <= 1
 x29 <= 1
 x30 <= 1
 x31 <= 1
 x32 <= 1
 x33 <= 1
 x34 <= 1
 x35 <= 1
 x36 <= 1
 x37 <= 1
 x38 <= 1
 x39 <= 1
 x40 <= 1
 x41 <= 1
 x42 <= 1
 x43 <= 1
 x44 <= 1
 x45 <= 1
 x46 <= 1
 x47 <= 1
 x48 <= 1
 x49 <= 1
 x50 <= 1
 x51 <= 1
 x52 <= 1
 x53 <= 1
 x54 <= 1
 x55 <= 1
 x56 <= 1
 x57 <= 1
 x58 <= 1
 x59 <= 1
 x60 <= 1
 x61 <= 1
 x62 <= 1
 x63 <= 1
 x64 <= 1
 x65 <= 1
 x66 <= 1
 x67 <= 1
 x68 <= 1
 x69 <= 1
 x70 <= 1
 x71 <= 1
 x72 <= 1
 x73 <= 1
 x74 <= 1
 x75 <= 1
 x76 <= 1
 x77 <= 1
 x78 <= 1
 x79 <= 1
 x80 <= 1
 x81 <= 1
 x82 <= 1
 x83 <= 1
 x84 <= 1
 x85 <= 1
 x86 <= 1
 x87 <= 1
 x88 <= 1
 x89 <= 1
 x90 <= 1
 x91 <= 1
 x92 <= 1
 x93 <= 1
 x94 <= 1
 x95 <= 1
 x96 <= 1
 x97 <= 1
 x98 <= 1
 x99 <= 1
 x100 <= 1
 x101 <= 1
 x102 <= 1
 x103 <= 1
 x104 <= 1
 x105 <= 1
 x106 <= 1
 x107 <= 1
 x108 <= 1
 x109 <= 1
 x110 <= 1
 x111 <= 1
 x112 <= 1
 x113 <= 1
 x114 <= 1
 x115 <= 1
 x116 <= 1
 x117 <= 1
 x118 <= 1
 x119 <= 1
 x120 <= 1
 x121 <= 1
 x122 <= 1
 x123 <= 1
 x124 <= 1
 x125 <= 1
 x126 <= 1
 x127 <= 1
 x128 <= 1
 x129 <= 1
 x130 <= 1
 x131 <= 1
 x132 <= 1
 x133 <= 1
 x134 <= 1
 x135 <= 1
End
