\ Model bilinear
\ LP format - for model browsing. Use MPS format to capture full model detail.
\ Signature: 0x6c979e68573241b4
Minimize
  e[0] + e[1] + e[2] + e[3] + e[4] + e[5] + e[6] + e[7] + e[8] + e[9]
   + e[10] + e[11] + e[12] + e[13] + e[14] + e[15] + e[16] + e[17] + e[18]
Subject To
 e1_0: e[0] + yb[0] >= 5.5
 e1_1: e[1] + yb[1] >= 2.5
 e1_2: e[2] + yb[2] >= 3
 e1_3: e[3] + yb[3] >= 4
 e1_4: e[4] + yb[4] >= 4
 e1_5: e[5] + yb[5] >= 3.5
 e1_6: e[6] + yb[6] >= 3.5
 e1_7: e[7] + yb[7] >= 4.5
 e1_8: e[8] + yb[8] >= 2.5
 e1_9: e[9] + yb[9] >= 5
 e1_10: e[10] + yb[10] >= 4.5
 e1_11: e[11] + yb[11] >= 8.5
 e1_12: e[12] + yb[12] >= 9
 e1_13: e[13] + yb[13] >= 11.5
 e1_14: e[14] + yb[14] >= 13
 e1_15: e[15] + yb[15] >= 16.5
 e1_16: e[16] + yb[16] >= 18
 e1_17: e[17] + yb[17] >= 19.5
 e1_18: e[18] + yb[18] >= 21.5
 e2_0: e[0] - yb[0] >= -5.5
 e2_1: e[1] - yb[1] >= -2.5
 e2_2: e[2] - yb[2] >= -3
 e2_3: e[3] - yb[3] >= -4
 e2_4: e[4] - yb[4] >= -4
 e2_5: e[5] - yb[5] >= -3.5
 e2_6: e[6] - yb[6] >= -3.5
 e2_7: e[7] - yb[7] >= -4.5
 e2_8: e[8] - yb[8] >= -2.5
 e2_9: e[9] - yb[9] >= -5
 e2_10: e[10] - yb[10] >= -4.5
 e2_11: e[11] - yb[11] >= -8.5
 e2_12: e[12] - yb[12] >= -9
 e2_13: e[13] - yb[13] >= -11.5
 e2_14: e[14] - yb[14] >= -13
 e2_15: e[15] - yb[15] >= -16.5
 e2_16: e[16] - yb[16] >= -18
 e2_17: e[17] - yb[17] >= -19.5
 e2_18: e[18] - yb[18] >= -21.5
 z_0: z[0] + z[1] + z[2] + z[3] + z[4] + z[5] + z[6] + z[7] + z[8] + z[9]
   + z[10] + z[11] + z[12] + z[13] + z[14] + z[15] = 1
 z_1: z[136] + z[137] + z[138] + z[139] + z[140] + z[141] + z[142] + z[143]
   + z[144] + z[145] + z[146] + z[147] + z[148] + z[149] + z[150] + z[151]
   + z[152] + z[153] + z[154] + z[155] + z[156] + z[157] + z[158] + z[159]
   + z[160] + z[161] + z[162] + z[163] + z[164] + z[165] + z[166] = 1
 z_2: z[272] + z[273] + z[274] + z[275] + z[276] + z[277] + z[278] + z[279]
   + z[280] + z[281] + z[282] + z[283] + z[284] + z[285] + z[286] + z[287]
   + z[288] + z[289] + z[290] + z[291] + z[292] + z[293] + z[294] + z[295]
   + z[296] + z[297] + z[298] + z[299] + z[300] + z[301] + z[302] + z[303]
   + z[304] + z[305] + z[306] + z[307] + z[308] + z[309] + z[310] + z[311]
   + z[312] + z[313] + z[314] + z[315] + z[316] = 1
 z_3: z[408] + z[409] + z[410] + z[411] + z[412] + z[413] + z[414] + z[415]
   + z[416] + z[417] + z[418] + z[419] + z[420] + z[421] + z[422] + z[423]
   + z[424] + z[425] + z[426] + z[427] + z[428] + z[429] + z[430] + z[431]
   + z[432] + z[433] + z[434] + z[435] + z[436] + z[437] + z[438] + z[439]
   + z[440] + z[441] + z[442] + z[443] + z[444] + z[445] + z[446] + z[447]
   + z[448] + z[449] + z[450] + z[451] + z[452] + z[453] + z[454] + z[455]
   + z[456] + z[457] + z[458] + z[459] + z[460] + z[461] + z[462] + z[463]
   + z[464] + z[465] = 1
 z_4: z[544] + z[545] + z[546] + z[547] + z[548] + z[549] + z[550] + z[551]
   + z[552] + z[553] + z[554] + z[555] + z[556] + z[557] + z[558] + z[559]
   + z[560] + z[561] + z[562] + z[563] + z[564] + z[565] + z[566] + z[567]
   + z[568] + z[569] + z[570] + z[571] + z[572] + z[573] + z[574] + z[575]
   + z[576] + z[577] + z[578] + z[579] + z[580] + z[581] + z[582] + z[583]
   + z[584] + z[585] + z[586] + z[587] + z[588] + z[589] + z[590] + z[591]
   + z[592] + z[593] + z[594] + z[595] + z[596] + z[597] + z[598] + z[599]
   + z[600] + z[601] + z[602] + z[603] + z[604] + z[605] + z[606] + z[607]
   + z[608] + z[609] + z[610] + z[611] + z[612] + z[613] = 1
 z_5: z[681] + z[682] + z[683] + z[684] + z[685] + z[686] + z[687] + z[688]
   + z[689] + z[690] + z[691] + z[692] + z[693] + z[694] + z[695] + z[696]
   + z[697] + z[698] + z[699] + z[700] + z[701] + z[702] + z[703] + z[704]
   + z[705] + z[706] + z[707] + z[708] + z[709] + z[710] + z[711] + z[712]
   + z[713] + z[714] + z[715] + z[716] + z[717] + z[718] + z[719] + z[720]
   + z[721] + z[722] + z[723] + z[724] + z[725] + z[726] + z[727] + z[728]
   + z[729] + z[730] + z[731] + z[732] + z[733] + z[734] + z[735] + z[736]
   + z[737] + z[738] + z[739] + z[740] + z[741] + z[742] + z[743] + z[744]
   + z[745] + z[746] + z[747] + z[748] + z[749] + z[750] + z[751] + z[752]
   + z[753] + z[754] + z[755] + z[756] + z[757] + z[758] + z[759] + z[760]
   = 1
 z_6: z[818] + z[819] + z[820] + z[821] + z[822] + z[823] + z[824] + z[825]
   + z[826] + z[827] + z[828] + z[829] + z[830] + z[831] + z[833] + z[834]
   + z[835] + z[836] + z[837] + z[838] + z[839] + z[840] + z[841] + z[842]
   + z[843] + z[844] + z[845] + z[846] + z[847] + z[848] + z[849] + z[850]
   + z[851] + z[852] + z[853] + z[854] + z[855] + z[856] + z[857] + z[858]
   + z[859] + z[860] + z[861] + z[862] + z[863] + z[864] + z[865] + z[866]
   + z[867] + z[868] + z[869] + z[870] + z[871] + z[872] + z[873] + z[874]
   + z[875] + z[876] + z[877] + z[878] + z[879] + z[880] + z[881] + z[882]
   + z[883] + z[884] + z[885] + z[886] + z[887] + z[888] + z[889] + z[890]
   + z[891] + z[892] + z[893] + z[894] + z[895] + z[896] + z[897] + z[898]
   + z[899] + z[900] + z[901] + z[902] + z[903] + z[904] + z[905] + z[906]
   = 1
 z_7: z[955] + z[956] + z[957] + z[958] + z[959] + z[960] + z[961] + z[962]
   + z[963] + z[964] + z[965] + z[966] + z[967] + z[970] + z[971] + z[972]
   + z[973] + z[974] + z[975] + z[976] + z[977] + z[978] + z[979] + z[980]
   + z[981] + z[982] + z[984] + z[985] + z[986] + z[987] + z[988] + z[989]
   + z[990] + z[991] + z[992] + z[993] + z[994] + z[995] + z[996] + z[997]
   + z[998] + z[999] + z[1000] + z[1001] + z[1002] + z[1003] + z[1004]
   + z[1005] + z[1006] + z[1007] + z[1008] + z[1009] + z[1010] + z[1011]
   + z[1012] + z[1013] + z[1014] + z[1015] + z[1016] + z[1017] + z[1018]
   + z[1019] + z[1020] + z[1021] + z[1022] + z[1023] + z[1024] + z[1025]
   + z[1026] + z[1027] + z[1028] + z[1029] + z[1030] + z[1031] + z[1032]
   + z[1033] + z[1034] + z[1035] + z[1036] + z[1037] + z[1038] + z[1039]
   + z[1040] + z[1041] + z[1042] + z[1043] + z[1044] + z[1045] + z[1046]
   + z[1047] + z[1048] + z[1049] + z[1050] + z[1051] = 1
 z_8: z[1092] + z[1093] + z[1094] + z[1095] + z[1096] + z[1097] + z[1098]
   + z[1099] + z[1100] + z[1101] + z[1102] + z[1103] + z[1107] + z[1108]
   + z[1109] + z[1110] + z[1111] + z[1112] + z[1113] + z[1114] + z[1115]
   + z[1116] + z[1117] + z[1118] + z[1121] + z[1122] + z[1123] + z[1124]
   + z[1125] + z[1126] + z[1127] + z[1128] + z[1129] + z[1130] + z[1131]
   + z[1132] + z[1134] + z[1135] + z[1136] + z[1137] + z[1138] + z[1139]
   + z[1140] + z[1141] + z[1142] + z[1143] + z[1144] + z[1145] + z[1146]
   + z[1147] + z[1148] + z[1149] + z[1150] + z[1151] + z[1152] + z[1153]
   + z[1154] + z[1155] + z[1156] + z[1157] + z[1158] + z[1159] + z[1160]
   + z[1161] + z[1162] + z[1163] + z[1164] + z[1165] + z[1166] + z[1167]
   + z[1168] + z[1169] + z[1170] + z[1171] + z[1172] + z[1173] + z[1174]
   + z[1175] + z[1176] + z[1177] + z[1178] + z[1179] + z[1180] + z[1181]
   + z[1182] + z[1183] + z[1184] + z[1185] + z[1186] + z[1187] + z[1188]
   + z[1189] + z[1190] + z[1191] + z[1192] + z[1193] + z[1194] + z[1195]
   = 1
 z_9: z[1229] + z[1230] + z[1231] + z[1232] + z[1233] + z[1234] + z[1235]
   + z[1236] + z[1237] + z[1238] + z[1239] + z[1244] + z[1245] + z[1246]
   + z[1247] + z[1248] + z[1249] + z[1250] + z[1251] + z[1252] + z[1253]
   + z[1254] + z[1258] + z[1259] + z[1260] + z[1261] + z[1262] + z[1263]
   + z[1264] + z[1265] + z[1266] + z[1267] + z[1268] + z[1271] + z[1272]
   + z[1273] + z[1274] + z[1275] + z[1276] + z[1277] + z[1278] + z[1279]
   + z[1280] + z[1281] + z[1283] + z[1284] + z[1285] + z[1286] + z[1287]
   + z[1288] + z[1289] + z[1290] + z[1291] + z[1292] + z[1293] + z[1294]
   + z[1295] + z[1296] + z[1297] + z[1298] + z[1299] + z[1300] + z[1301]
   + z[1302] + z[1303] + z[1304] + z[1305] + z[1306] + z[1307] + z[1308]
   + z[1309] + z[1310] + z[1311] + z[1312] + z[1313] + z[1314] + z[1315]
   + z[1316] + z[1317] + z[1318] + z[1319] + z[1320] + z[1321] + z[1322]
   + z[1323] + z[1324] + z[1325] + z[1326] + z[1327] + z[1328] + z[1329]
   + z[1330] + z[1331] + z[1332] + z[1333] + z[1334] + z[1335] + z[1336]
   + z[1337] + z[1338] = 1
 z_10: z[1366] + z[1367] + z[1368] + z[1369] + z[1370] + z[1371] + z[1372]
   + z[1373] + z[1374] + z[1375] + z[1381] + z[1382] + z[1383] + z[1384]
   + z[1385] + z[1386] + z[1387] + z[1388] + z[1389] + z[1390] + z[1395]
   + z[1396] + z[1397] + z[1398] + z[1399] + z[1400] + z[1401] + z[1402]
   + z[1403] + z[1404] + z[1408] + z[1409] + z[1410] + z[1411] + z[1412]
   + z[1413] + z[1414] + z[1415] + z[1416] + z[1417] + z[1420] + z[1421]
   + z[1422] + z[1423] + z[1424] + z[1425] + z[1426] + z[1427] + z[1428]
   + z[1429] + z[1431] + z[1432] + z[1433] + z[1434] + z[1435] + z[1436]
   + z[1437] + z[1438] + z[1439] + z[1440] + z[1441] + z[1442] + z[1443]
   + z[1444] + z[1445] + z[1446] + z[1447] + z[1448] + z[1449] + z[1450]
   + z[1451] + z[1452] + z[1453] + z[1454] + z[1455] + z[1456] + z[1457]
   + z[1458] + z[1459] + z[1460] + z[1461] + z[1462] + z[1463] + z[1464]
   + z[1465] + z[1466] + z[1467] + z[1468] + z[1469] + z[1470] + z[1471]
   + z[1472] + z[1473] + z[1474] + z[1475] + z[1476] + z[1477] + z[1478]
   + z[1479] + z[1480] = 1
 z_11: z[1503] + z[1504] + z[1505] + z[1506] + z[1507] + z[1508] + z[1509]
   + z[1510] + z[1511] + z[1518] + z[1519] + z[1520] + z[1521] + z[1522]
   + z[1523] + z[1524] + z[1525] + z[1526] + z[1532] + z[1533] + z[1534]
   + z[1535] + z[1536] + z[1537] + z[1538] + z[1539] + z[1540] + z[1545]
   + z[1546] + z[1547] + z[1548] + z[1549] + z[1550] + z[1551] + z[1552]
   + z[1553] + z[1557] + z[1558] + z[1559] + z[1560] + z[1561] + z[1562]
   + z[1563] + z[1564] + z[1565] + z[1568] + z[1569] + z[1570] + z[1571]
   + z[1572] + z[1573] + z[1574] + z[1575] + z[1576] + z[1578] + z[1579]
   + z[1580] + z[1581] + z[1582] + z[1583] + z[1584] + z[1585] + z[1586]
   + z[1587] + z[1588] + z[1589] + z[1590] + z[1591] + z[1592] + z[1593]
   + z[1594] + z[1595] + z[1596] + z[1597] + z[1598] + z[1599] + z[1600]
   + z[1601] + z[1602] + z[1603] + z[1604] + z[1605] + z[1606] + z[1607]
   + z[1608] + z[1609] + z[1610] + z[1611] + z[1612] + z[1613] + z[1614]
   + z[1615] + z[1616] + z[1617] + z[1618] + z[1619] + z[1620] + z[1621]
   = 1
 z_12: z[1640] + z[1641] + z[1642] + z[1643] + z[1644] + z[1645] + z[1646]
   + z[1647] + z[1655] + z[1656] + z[1657] + z[1658] + z[1659] + z[1660]
   + z[1661] + z[1662] + z[1669] + z[1670] + z[1671] + z[1672] + z[1673]
   + z[1674] + z[1675] + z[1676] + z[1682] + z[1683] + z[1684] + z[1685]
   + z[1686] + z[1687] + z[1688] + z[1689] + z[1694] + z[1695] + z[1696]
   + z[1697] + z[1698] + z[1699] + z[1700] + z[1701] + z[1705] + z[1706]
   + z[1707] + z[1708] + z[1709] + z[1710] + z[1711] + z[1712] + z[1715]
   + z[1716] + z[1717] + z[1718] + z[1719] + z[1720] + z[1721] + z[1722]
   + z[1724] + z[1725] + z[1726] + z[1727] + z[1728] + z[1729] + z[1730]
   + z[1731] + z[1732] + z[1733] + z[1734] + z[1735] + z[1736] + z[1737]
   + z[1738] + z[1739] + z[1740] + z[1741] + z[1742] + z[1743] + z[1744]
   + z[1745] + z[1746] + z[1747] + z[1748] + z[1749] + z[1750] + z[1751]
   + z[1752] + z[1753] + z[1754] + z[1755] + z[1756] + z[1757] + z[1758]
   + z[1759] + z[1760] + z[1761] = 1
 z_13: z[1777] + z[1778] + z[1779] + z[1780] + z[1781] + z[1782] + z[1783]
   + z[1792] + z[1793] + z[1794] + z[1795] + z[1796] + z[1797] + z[1798]
   + z[1806] + z[1807] + z[1808] + z[1809] + z[1810] + z[1811] + z[1812]
   + z[1819] + z[1820] + z[1821] + z[1822] + z[1823] + z[1824] + z[1825]
   + z[1831] + z[1832] + z[1833] + z[1834] + z[1835] + z[1836] + z[1837]
   + z[1842] + z[1843] + z[1844] + z[1845] + z[1846] + z[1847] + z[1848]
   + z[1852] + z[1853] + z[1854] + z[1855] + z[1856] + z[1857] + z[1858]
   + z[1861] + z[1862] + z[1863] + z[1864] + z[1865] + z[1866] + z[1867]
   + z[1869] + z[1870] + z[1871] + z[1872] + z[1873] + z[1874] + z[1875]
   + z[1876] + z[1877] + z[1878] + z[1879] + z[1880] + z[1881] + z[1882]
   + z[1883] + z[1884] + z[1885] + z[1886] + z[1887] + z[1888] + z[1889]
   + z[1890] + z[1891] + z[1892] + z[1893] + z[1894] + z[1895] + z[1896]
   + z[1897] + z[1898] + z[1899] + z[1900] = 1
 z_14: z[1914] + z[1915] + z[1916] + z[1917] + z[1918] + z[1919] + z[1929]
   + z[1930] + z[1931] + z[1932] + z[1933] + z[1934] + z[1943] + z[1944]
   + z[1945] + z[1946] + z[1947] + z[1948] + z[1956] + z[1957] + z[1958]
   + z[1959] + z[1960] + z[1961] + z[1968] + z[1969] + z[1970] + z[1971]
   + z[1972] + z[1973] + z[1979] + z[1980] + z[1981] + z[1982] + z[1983]
   + z[1984] + z[1989] + z[1990] + z[1991] + z[1992] + z[1993] + z[1994]
   + z[1998] + z[1999] + z[2000] + z[2001] + z[2002] + z[2003] + z[2006]
   + z[2007] + z[2008] + z[2009] + z[2010] + z[2011] + z[2013] + z[2014]
   + z[2015] + z[2016] + z[2017] + z[2018] + z[2019] + z[2020] + z[2021]
   + z[2022] + z[2023] + z[2024] + z[2025] + z[2026] + z[2027] + z[2028]
   + z[2029] + z[2030] + z[2031] + z[2032] + z[2033] + z[2034] + z[2035]
   + z[2036] + z[2037] + z[2038] = 1
 z_15: z[2051] + z[2052] + z[2053] + z[2054] + z[2055] + z[2066] + z[2067]
   + z[2068] + z[2069] + z[2070] + z[2080] + z[2081] + z[2082] + z[2083]
   + z[2084] + z[2093] + z[2094] + z[2095] + z[2096] + z[2097] + z[2105]
   + z[2106] + z[2107] + z[2108] + z[2109] + z[2116] + z[2117] + z[2118]
   + z[2119] + z[2120] + z[2126] + z[2127] + z[2128] + z[2129] + z[2130]
   + z[2135] + z[2136] + z[2137] + z[2138] + z[2139] + z[2143] + z[2144]
   + z[2145] + z[2146] + z[2147] + z[2150] + z[2151] + z[2152] + z[2153]
   + z[2154] + z[2156] + z[2157] + z[2158] + z[2159] + z[2160] + z[2161]
   + z[2162] + z[2163] + z[2164] + z[2165] + z[2166] + z[2167] + z[2168]
   + z[2169] + z[2170] + z[2171] + z[2172] + z[2173] + z[2174] + z[2175]
   = 1
 z_16: z[2188] + z[2189] + z[2190] + z[2191] + z[2203] + z[2204] + z[2205]
   + z[2206] + z[2217] + z[2218] + z[2219] + z[2220] + z[2230] + z[2231]
   + z[2232] + z[2233] + z[2242] + z[2243] + z[2244] + z[2245] + z[2253]
   + z[2254] + z[2255] + z[2256] + z[2263] + z[2264] + z[2265] + z[2266]
   + z[2272] + z[2273] + z[2274] + z[2275] + z[2280] + z[2281] + z[2282]
   + z[2283] + z[2287] + z[2288] + z[2289] + z[2290] + z[2293] + z[2294]
   + z[2295] + z[2296] + z[2298] + z[2299] + z[2300] + z[2301] + z[2302]
   + z[2303] + z[2304] + z[2305] + z[2306] + z[2307] + z[2308] + z[2309]
   + z[2310] + z[2311] = 1
 z_17: z[2325] + z[2326] + z[2327] + z[2340] + z[2341] + z[2342] + z[2354]
   + z[2355] + z[2356] + z[2367] + z[2368] + z[2369] + z[2379] + z[2380]
   + z[2381] + z[2390] + z[2391] + z[2392] + z[2400] + z[2401] + z[2402]
   + z[2409] + z[2410] + z[2411] + z[2417] + z[2418] + z[2419] + z[2424]
   + z[2425] + z[2426] + z[2430] + z[2431] + z[2432] + z[2435] + z[2436]
   + z[2437] + z[2439] + z[2440] + z[2441] + z[2442] + z[2443] + z[2444]
   + z[2445] + z[2446] + z[2447] = 1
 z_18: z[2462] + z[2463] + z[2477] + z[2478] + z[2491] + z[2492] + z[2504]
   + z[2505] + z[2516] + z[2517] + z[2527] + z[2528] + z[2537] + z[2538]
   + z[2546] + z[2547] + z[2554] + z[2555] + z[2561] + z[2562] + z[2567]
   + z[2568] + z[2572] + z[2573] + z[2576] + z[2577] + z[2579] + z[2580]
   + z[2581] + z[2582] + z[2583] = 1
 zxi_0_0: - xi[0] + z[0] >= 0
 zxi_1_0: - xi[1] + z[1] >= 0
 zxi_2_0: - xi[2] + z[2] >= 0
 zxi_3_0: - xi[3] + z[3] >= 0
 zxi_4_0: - xi[4] + z[4] >= 0
 zxi_5_0: - xi[5] + z[5] >= 0
 zxi_6_0: - xi[6] + z[6] >= 0
 zxi_7_0: - xi[7] + z[7] >= 0
 zxi_8_0: - xi[8] + z[8] >= 0
 zxi_9_0: - xi[9] + z[9] >= 0
 zxi_10_0: - xi[10] + z[10] >= 0
 zxi_11_0: - xi[11] + z[11] >= 0
 zxi_12_0: - xi[12] + z[12] >= 0
 zxi_13_0: - xi[13] + z[13] >= 0
 zxi_14_0: - xi[14] + z[14] >= 0
 zxi_15_0: - xi[15] + z[15] >= 0
 zxi_16_0: - xi[16] + z[16] >= 0
 zxi_17_0: - xi[17] + z[17] >= 0
 zxi_18_0: - xi[18] + z[18] >= 0
 zxi_19_0: - xi[19] + z[19] >= 0
 zxi_20_0: - xi[20] + z[20] >= 0
 zxi_21_0: - xi[21] + z[21] >= 0
 zxi_22_0: - xi[22] + z[22] >= 0
 zxi_23_0: - xi[23] + z[23] >= 0
 zxi_24_0: - xi[24] + z[24] >= 0
 zxi_25_0: - xi[25] + z[25] >= 0
 zxi_26_0: - xi[26] + z[26] >= 0
 zxi_27_0: - xi[27] + z[27] >= 0
 zxi_28_0: - xi[28] + z[28] >= 0
 zxi_29_0: - xi[29] + z[29] >= 0
 zxi_30_0: - xi[30] + z[30] >= 0
 zxi_31_0: - xi[31] + z[31] >= 0
 zxi_32_0: - xi[32] + z[32] >= 0
 zxi_33_0: - xi[33] + z[33] >= 0
 zxi_34_0: - xi[34] + z[34] >= 0
 zxi_35_0: - xi[35] + z[35] >= 0
 zxi_36_0: - xi[36] + z[36] >= 0
 zxi_37_0: - xi[37] + z[37] >= 0
 zxi_38_0: - xi[38] + z[38] >= 0
 zxi_39_0: - xi[39] + z[39] >= 0
 zxi_40_0: - xi[40] + z[40] >= 0
 zxi_41_0: - xi[41] + z[41] >= 0
 zxi_42_0: - xi[42] + z[42] >= 0
 zxi_43_0: - xi[43] + z[43] >= 0
 zxi_44_0: - xi[44] + z[44] >= 0
 zxi_45_0: - xi[45] + z[45] >= 0
 zxi_46_0: - xi[46] + z[46] >= 0
 zxi_47_0: - xi[47] + z[47] >= 0
 zxi_48_0: - xi[48] + z[48] >= 0
 zxi_49_0: - xi[49] + z[49] >= 0
 zxi_50_0: - xi[50] + z[50] >= 0
 zxi_51_0: - xi[51] + z[51] >= 0
 zxi_52_0: - xi[52] + z[52] >= 0
 zxi_53_0: - xi[53] + z[53] >= 0
 zxi_54_0: - xi[54] + z[54] >= 0
 zxi_55_0: - xi[55] + z[55] >= 0
 zxi_56_0: - xi[56] + z[56] >= 0
 zxi_57_0: - xi[57] + z[57] >= 0
 zxi_58_0: - xi[58] + z[58] >= 0
 zxi_59_0: - xi[59] + z[59] >= 0
 zxi_60_0: - xi[60] + z[60] >= 0
 zxi_61_0: - xi[61] + z[61] >= 0
 zxi_62_0: - xi[62] + z[62] >= 0
 zxi_63_0: - xi[63] + z[63] >= 0
 zxi_64_0: - xi[64] + z[64] >= 0
 zxi_65_0: - xi[65] + z[65] >= 0
 zxi_66_0: - xi[66] + z[66] >= 0
 zxi_67_0: - xi[67] + z[67] >= 0
 zxi_68_0: - xi[68] + z[68] >= 0
 zxi_69_0: - xi[69] + z[69] >= 0
 zxi_70_0: - xi[70] + z[70] >= 0
 zxi_71_0: - xi[71] + z[71] >= 0
 zxi_72_0: - xi[72] + z[72] >= 0
 zxi_73_0: - xi[73] + z[73] >= 0
 zxi_74_0: - xi[74] + z[74] >= 0
 zxi_75_0: - xi[75] + z[75] >= 0
 zxi_76_0: - xi[76] + z[76] >= 0
 zxi_77_0: - xi[77] + z[77] >= 0
 zxi_78_0: - xi[78] + z[78] >= 0
 zxi_79_0: - xi[79] + z[79] >= 0
 zxi_80_0: - xi[80] + z[80] >= 0
 zxi_81_0: - xi[81] + z[81] >= 0
 zxi_82_0: - xi[82] + z[82] >= 0
 zxi_83_0: - xi[83] + z[83] >= 0
 zxi_84_0: - xi[84] + z[84] >= 0
 zxi_85_0: - xi[85] + z[85] >= 0
 zxi_86_0: - xi[86] + z[86] >= 0
 zxi_87_0: - xi[87] + z[87] >= 0
 zxi_88_0: - xi[88] + z[88] >= 0
 zxi_89_0: - xi[89] + z[89] >= 0
 zxi_90_0: - xi[90] + z[90] >= 0
 zxi_91_0: - xi[91] + z[91] >= 0
 zxi_92_0: - xi[92] + z[92] >= 0
 zxi_93_0: - xi[93] + z[93] >= 0
 zxi_94_0: - xi[94] + z[94] >= 0
 zxi_95_0: - xi[95] + z[95] >= 0
 zxi_96_0: - xi[96] + z[96] >= 0
 zxi_97_0: - xi[97] + z[97] >= 0
 zxi_98_0: - xi[98] + z[98] >= 0
 zxi_99_0: - xi[99] + z[99] >= 0
 zxi_100_0: - xi[100] + z[100] >= 0
 zxi_101_0: - xi[101] + z[101] >= 0
 zxi_102_0: - xi[102] + z[102] >= 0
 zxi_103_0: - xi[103] + z[103] >= 0
 zxi_104_0: - xi[104] + z[104] >= 0
 zxi_105_0: - xi[105] + z[105] >= 0
 zxi_106_0: - xi[106] + z[106] >= 0
 zxi_107_0: - xi[107] + z[107] >= 0
 zxi_108_0: - xi[108] + z[108] >= 0
 zxi_109_0: - xi[109] + z[109] >= 0
 zxi_110_0: - xi[110] + z[110] >= 0
 zxi_111_0: - xi[111] + z[111] >= 0
 zxi_112_0: - xi[112] + z[112] >= 0
 zxi_113_0: - xi[113] + z[113] >= 0
 zxi_114_0: - xi[114] + z[114] >= 0
 zxi_115_0: - xi[115] + z[115] >= 0
 zxi_116_0: - xi[116] + z[116] >= 0
 zxi_117_0: - xi[117] + z[117] >= 0
 zxi_118_0: - xi[118] + z[118] >= 0
 zxi_119_0: - xi[119] + z[119] >= 0
 zxi_120_0: - xi[120] + z[120] >= 0
 zxi_121_0: - xi[121] + z[121] >= 0
 zxi_122_0: - xi[122] + z[122] >= 0
 zxi_123_0: - xi[123] + z[123] >= 0
 zxi_124_0: - xi[124] + z[124] >= 0
 zxi_125_0: - xi[125] + z[125] >= 0
 zxi_126_0: - xi[126] + z[126] >= 0
 zxi_127_0: - xi[127] + z[127] >= 0
 zxi_128_0: - xi[128] + z[128] >= 0
 zxi_129_0: - xi[129] + z[129] >= 0
 zxi_130_0: - xi[130] + z[130] >= 0
 zxi_131_0: - xi[131] + z[131] >= 0
 zxi_132_0: - xi[132] + z[132] >= 0
 zxi_133_0: - xi[133] + z[133] >= 0
 zxi_134_0: - xi[134] + z[134] >= 0
 zxi_135_0: - xi[135] + z[135] >= 0
 zxi_0_1: - xi[0] + z[136] >= 0
 zxi_1_1: - xi[1] + z[137] >= 0
 zxi_2_1: - xi[2] + z[138] >= 0
 zxi_3_1: - xi[3] + z[139] >= 0
 zxi_4_1: - xi[4] + z[140] >= 0
 zxi_5_1: - xi[5] + z[141] >= 0
 zxi_6_1: - xi[6] + z[142] >= 0
 zxi_7_1: - xi[7] + z[143] >= 0
 zxi_8_1: - xi[8] + z[144] >= 0
 zxi_9_1: - xi[9] + z[145] >= 0
 zxi_10_1: - xi[10] + z[146] >= 0
 zxi_11_1: - xi[11] + z[147] >= 0
 zxi_12_1: - xi[12] + z[148] >= 0
 zxi_13_1: - xi[13] + z[149] >= 0
 zxi_14_1: - xi[14] + z[150] >= 0
 zxi_15_1: - xi[15] + z[151] >= 0
 zxi_16_1: - xi[16] + z[152] >= 0
 zxi_17_1: - xi[17] + z[153] >= 0
 zxi_18_1: - xi[18] + z[154] >= 0
 zxi_19_1: - xi[19] + z[155] >= 0
 zxi_20_1: - xi[20] + z[156] >= 0
 zxi_21_1: - xi[21] + z[157] >= 0
 zxi_22_1: - xi[22] + z[158] >= 0
 zxi_23_1: - xi[23] + z[159] >= 0
 zxi_24_1: - xi[24] + z[160] >= 0
 zxi_25_1: - xi[25] + z[161] >= 0
 zxi_26_1: - xi[26] + z[162] >= 0
 zxi_27_1: - xi[27] + z[163] >= 0
 zxi_28_1: - xi[28] + z[164] >= 0
 zxi_29_1: - xi[29] + z[165] >= 0
 zxi_30_1: - xi[30] + z[166] >= 0
 zxi_31_1: - xi[31] + z[167] >= 0
 zxi_32_1: - xi[32] + z[168] >= 0
 zxi_33_1: - xi[33] + z[169] >= 0
 zxi_34_1: - xi[34] + z[170] >= 0
 zxi_35_1: - xi[35] + z[171] >= 0
 zxi_36_1: - xi[36] + z[172] >= 0
 zxi_37_1: - xi[37] + z[173] >= 0
 zxi_38_1: - xi[38] + z[174] >= 0
 zxi_39_1: - xi[39] + z[175] >= 0
 zxi_40_1: - xi[40] + z[176] >= 0
 zxi_41_1: - xi[41] + z[177] >= 0
 zxi_42_1: - xi[42] + z[178] >= 0
 zxi_43_1: - xi[43] + z[179] >= 0
 zxi_44_1: - xi[44] + z[180] >= 0
 zxi_45_1: - xi[45] + z[181] >= 0
 zxi_46_1: - xi[46] + z[182] >= 0
 zxi_47_1: - xi[47] + z[183] >= 0
 zxi_48_1: - xi[48] + z[184] >= 0
 zxi_49_1: - xi[49] + z[185] >= 0
 zxi_50_1: - xi[50] + z[186] >= 0
 zxi_51_1: - xi[51] + z[187] >= 0
 zxi_52_1: - xi[52] + z[188] >= 0
 zxi_53_1: - xi[53] + z[189] >= 0
 zxi_54_1: - xi[54] + z[190] >= 0
 zxi_55_1: - xi[55] + z[191] >= 0
 zxi_56_1: - xi[56] + z[192] >= 0
 zxi_57_1: - xi[57] + z[193] >= 0
 zxi_58_1: - xi[58] + z[194] >= 0
 zxi_59_1: - xi[59] + z[195] >= 0
 zxi_60_1: - xi[60] + z[196] >= 0
 zxi_61_1: - xi[61] + z[197] >= 0
 zxi_62_1: - xi[62] + z[198] >= 0
 zxi_63_1: - xi[63] + z[199] >= 0
 zxi_64_1: - xi[64] + z[200] >= 0
 zxi_65_1: - xi[65] + z[201] >= 0
 zxi_66_1: - xi[66] + z[202] >= 0
 zxi_67_1: - xi[67] + z[203] >= 0
 zxi_68_1: - xi[68] + z[204] >= 0
 zxi_69_1: - xi[69] + z[205] >= 0
 zxi_70_1: - xi[70] + z[206] >= 0
 zxi_71_1: - xi[71] + z[207] >= 0
 zxi_72_1: - xi[72] + z[208] >= 0
 zxi_73_1: - xi[73] + z[209] >= 0
 zxi_74_1: - xi[74] + z[210] >= 0
 zxi_75_1: - xi[75] + z[211] >= 0
 zxi_76_1: - xi[76] + z[212] >= 0
 zxi_77_1: - xi[77] + z[213] >= 0
 zxi_78_1: - xi[78] + z[214] >= 0
 zxi_79_1: - xi[79] + z[215] >= 0
 zxi_80_1: - xi[80] + z[216] >= 0
 zxi_81_1: - xi[81] + z[217] >= 0
 zxi_82_1: - xi[82] + z[218] >= 0
 zxi_83_1: - xi[83] + z[219] >= 0
 zxi_84_1: - xi[84] + z[220] >= 0
 zxi_85_1: - xi[85] + z[221] >= 0
 zxi_86_1: - xi[86] + z[222] >= 0
 zxi_87_1: - xi[87] + z[223] >= 0
 zxi_88_1: - xi[88] + z[224] >= 0
 zxi_89_1: - xi[89] + z[225] >= 0
 zxi_90_1: - xi[90] + z[226] >= 0
 zxi_91_1: - xi[91] + z[227] >= 0
 zxi_92_1: - xi[92] + z[228] >= 0
 zxi_93_1: - xi[93] + z[229] >= 0
 zxi_94_1: - xi[94] + z[230] >= 0
 zxi_95_1: - xi[95] + z[231] >= 0
 zxi_96_1: - xi[96] + z[232] >= 0
 zxi_97_1: - xi[97] + z[233] >= 0
 zxi_98_1: - xi[98] + z[234] >= 0
 zxi_99_1: - xi[99] + z[235] >= 0
 zxi_100_1: - xi[100] + z[236] >= 0
 zxi_101_1: - xi[101] + z[237] >= 0
 zxi_102_1: - xi[102] + z[238] >= 0
 zxi_103_1: - xi[103] + z[239] >= 0
 zxi_104_1: - xi[104] + z[240] >= 0
 zxi_105_1: - xi[105] + z[241] >= 0
 zxi_106_1: - xi[106] + z[242] >= 0
 zxi_107_1: - xi[107] + z[243] >= 0
 zxi_108_1: - xi[108] + z[244] >= 0
 zxi_109_1: - xi[109] + z[245] >= 0
 zxi_110_1: - xi[110] + z[246] >= 0
 zxi_111_1: - xi[111] + z[247] >= 0
 zxi_112_1: - xi[112] + z[248] >= 0
 zxi_113_1: - xi[113] + z[249] >= 0
 zxi_114_1: - xi[114] + z[250] >= 0
 zxi_115_1: - xi[115] + z[251] >= 0
 zxi_116_1: - xi[116] + z[252] >= 0
 zxi_117_1: - xi[117] + z[253] >= 0
 zxi_118_1: - xi[118] + z[254] >= 0
 zxi_119_1: - xi[119] + z[255] >= 0
 zxi_120_1: - xi[120] + z[256] >= 0
 zxi_121_1: - xi[121] + z[257] >= 0
 zxi_122_1: - xi[122] + z[258] >= 0
 zxi_123_1: - xi[123] + z[259] >= 0
 zxi_124_1: - xi[124] + z[260] >= 0
 zxi_125_1: - xi[125] + z[261] >= 0
 zxi_126_1: - xi[126] + z[262] >= 0
 zxi_127_1: - xi[127] + z[263] >= 0
 zxi_128_1: - xi[128] + z[264] >= 0
 zxi_129_1: - xi[129] + z[265] >= 0
 zxi_130_1: - xi[130] + z[266] >= 0
 zxi_131_1: - xi[131] + z[267] >= 0
 zxi_132_1: - xi[132] + z[268] >= 0
 zxi_133_1: - xi[133] + z[269] >= 0
 zxi_134_1: - xi[134] + z[270] >= 0
 zxi_135_1: - xi[135] + z[271] >= 0
 zxi_0_2: - xi[0] + z[272] >= 0
 zxi_1_2: - xi[1] + z[273] >= 0
 zxi_2_2: - xi[2] + z[274] >= 0
 zxi_3_2: - xi[3] + z[275] >= 0
 zxi_4_2: - xi[4] + z[276] >= 0
 zxi_5_2: - xi[5] + z[277] >= 0
 zxi_6_2: - xi[6] + z[278] >= 0
 zxi_7_2: - xi[7] + z[279] >= 0
 zxi_8_2: - xi[8] + z[280] >= 0
 zxi_9_2: - xi[9] + z[281] >= 0
 zxi_10_2: - xi[10] + z[282] >= 0
 zxi_11_2: - xi[11] + z[283] >= 0
 zxi_12_2: - xi[12] + z[284] >= 0
 zxi_13_2: - xi[13] + z[285] >= 0
 zxi_14_2: - xi[14] + z[286] >= 0
 zxi_15_2: - xi[15] + z[287] >= 0
 zxi_16_2: - xi[16] + z[288] >= 0
 zxi_17_2: - xi[17] + z[289] >= 0
 zxi_18_2: - xi[18] + z[290] >= 0
 zxi_19_2: - xi[19] + z[291] >= 0
 zxi_20_2: - xi[20] + z[292] >= 0
 zxi_21_2: - xi[21] + z[293] >= 0
 zxi_22_2: - xi[22] + z[294] >= 0
 zxi_23_2: - xi[23] + z[295] >= 0
 zxi_24_2: - xi[24] + z[296] >= 0
 zxi_25_2: - xi[25] + z[297] >= 0
 zxi_26_2: - xi[26] + z[298] >= 0
 zxi_27_2: - xi[27] + z[299] >= 0
 zxi_28_2: - xi[28] + z[300] >= 0
 zxi_29_2: - xi[29] + z[301] >= 0
 zxi_30_2: - xi[30] + z[302] >= 0
 zxi_31_2: - xi[31] + z[303] >= 0
 zxi_32_2: - xi[32] + z[304] >= 0
 zxi_33_2: - xi[33] + z[305] >= 0
 zxi_34_2: - xi[34] + z[306] >= 0
 zxi_35_2: - xi[35] + z[307] >= 0
 zxi_36_2: - xi[36] + z[308] >= 0
 zxi_37_2: - xi[37] + z[309] >= 0
 zxi_38_2: - xi[38] + z[310] >= 0
 zxi_39_2: - xi[39] + z[311] >= 0
 zxi_40_2: - xi[40] + z[312] >= 0
 zxi_41_2: - xi[41] + z[313] >= 0
 zxi_42_2: - xi[42] + z[314] >= 0
 zxi_43_2: - xi[43] + z[315] >= 0
 zxi_44_2: - xi[44] + z[316] >= 0
 zxi_45_2: - xi[45] + z[317] >= 0
 zxi_46_2: - xi[46] + z[318] >= 0
 zxi_47_2: - xi[47] + z[319] >= 0
 zxi_48_2: - xi[48] + z[320] >= 0
 zxi_49_2: - xi[49] + z[321] >= 0
 zxi_50_2: - xi[50] + z[322] >= 0
 zxi_51_2: - xi[51] + z[323] >= 0
 zxi_52_2: - xi[52] + z[324] >= 0
 zxi_53_2: - xi[53] + z[325] >= 0
 zxi_54_2: - xi[54] + z[326] >= 0
 zxi_55_2: - xi[55] + z[327] >= 0
 zxi_56_2: - xi[56] + z[328] >= 0
 zxi_57_2: - xi[57] + z[329] >= 0
 zxi_58_2: - xi[58] + z[330] >= 0
 zxi_59_2: - xi[59] + z[331] >= 0
 zxi_60_2: - xi[60] + z[332] >= 0
 zxi_61_2: - xi[61] + z[333] >= 0
 zxi_62_2: - xi[62] + z[334] >= 0
 zxi_63_2: - xi[63] + z[335] >= 0
 zxi_64_2: - xi[64] + z[336] >= 0
 zxi_65_2: - xi[65] + z[337] >= 0
 zxi_66_2: - xi[66] + z[338] >= 0
 zxi_67_2: - xi[67] + z[339] >= 0
 zxi_68_2: - xi[68] + z[340] >= 0
 zxi_69_2: - xi[69] + z[341] >= 0
 zxi_70_2: - xi[70] + z[342] >= 0
 zxi_71_2: - xi[71] + z[343] >= 0
 zxi_72_2: - xi[72] + z[344] >= 0
 zxi_73_2: - xi[73] + z[345] >= 0
 zxi_74_2: - xi[74] + z[346] >= 0
 zxi_75_2: - xi[75] + z[347] >= 0
 zxi_76_2: - xi[76] + z[348] >= 0
 zxi_77_2: - xi[77] + z[349] >= 0
 zxi_78_2: - xi[78] + z[350] >= 0
 zxi_79_2: - xi[79] + z[351] >= 0
 zxi_80_2: - xi[80] + z[352] >= 0
 zxi_81_2: - xi[81] + z[353] >= 0
 zxi_82_2: - xi[82] + z[354] >= 0
 zxi_83_2: - xi[83] + z[355] >= 0
 zxi_84_2: - xi[84] + z[356] >= 0
 zxi_85_2: - xi[85] + z[357] >= 0
 zxi_86_2: - xi[86] + z[358] >= 0
 zxi_87_2: - xi[87] + z[359] >= 0
 zxi_88_2: - xi[88] + z[360] >= 0
 zxi_89_2: - xi[89] + z[361] >= 0
 zxi_90_2: - xi[90] + z[362] >= 0
 zxi_91_2: - xi[91] + z[363] >= 0
 zxi_92_2: - xi[92] + z[364] >= 0
 zxi_93_2: - xi[93] + z[365] >= 0
 zxi_94_2: - xi[94] + z[366] >= 0
 zxi_95_2: - xi[95] + z[367] >= 0
 zxi_96_2: - xi[96] + z[368] >= 0
 zxi_97_2: - xi[97] + z[369] >= 0
 zxi_98_2: - xi[98] + z[370] >= 0
 zxi_99_2: - xi[99] + z[371] >= 0
 zxi_100_2: - xi[100] + z[372] >= 0
 zxi_101_2: - xi[101] + z[373] >= 0
 zxi_102_2: - xi[102] + z[374] >= 0
 zxi_103_2: - xi[103] + z[375] >= 0
 zxi_104_2: - xi[104] + z[376] >= 0
 zxi_105_2: - xi[105] + z[377] >= 0
 zxi_106_2: - xi[106] + z[378] >= 0
 zxi_107_2: - xi[107] + z[379] >= 0
 zxi_108_2: - xi[108] + z[380] >= 0
 zxi_109_2: - xi[109] + z[381] >= 0
 zxi_110_2: - xi[110] + z[382] >= 0
 zxi_111_2: - xi[111] + z[383] >= 0
 zxi_112_2: - xi[112] + z[384] >= 0
 zxi_113_2: - xi[113] + z[385] >= 0
 zxi_114_2: - xi[114] + z[386] >= 0
 zxi_115_2: - xi[115] + z[387] >= 0
 zxi_116_2: - xi[116] + z[388] >= 0
 zxi_117_2: - xi[117] + z[389] >= 0
 zxi_118_2: - xi[118] + z[390] >= 0
 zxi_119_2: - xi[119] + z[391] >= 0
 zxi_120_2: - xi[120] + z[392] >= 0
 zxi_121_2: - xi[121] + z[393] >= 0
 zxi_122_2: - xi[122] + z[394] >= 0
 zxi_123_2: - xi[123] + z[395] >= 0
 zxi_124_2: - xi[124] + z[396] >= 0
 zxi_125_2: - xi[125] + z[397] >= 0
 zxi_126_2: - xi[126] + z[398] >= 0
 zxi_127_2: - xi[127] + z[399] >= 0
 zxi_128_2: - xi[128] + z[400] >= 0
 zxi_129_2: - xi[129] + z[401] >= 0
 zxi_130_2: - xi[130] + z[402] >= 0
 zxi_131_2: - xi[131] + z[403] >= 0
 zxi_132_2: - xi[132] + z[404] >= 0
 zxi_133_2: - xi[133] + z[405] >= 0
 zxi_134_2: - xi[134] + z[406] >= 0
 zxi_135_2: - xi[135] + z[407] >= 0
 zxi_0_3: - xi[0] + z[408] >= 0
 zxi_1_3: - xi[1] + z[409] >= 0
 zxi_2_3: - xi[2] + z[410] >= 0
 zxi_3_3: - xi[3] + z[411] >= 0
 zxi_4_3: - xi[4] + z[412] >= 0
 zxi_5_3: - xi[5] + z[413] >= 0
 zxi_6_3: - xi[6] + z[414] >= 0
 zxi_7_3: - xi[7] + z[415] >= 0
 zxi_8_3: - xi[8] + z[416] >= 0
 zxi_9_3: - xi[9] + z[417] >= 0
 zxi_10_3: - xi[10] + z[418] >= 0
 zxi_11_3: - xi[11] + z[419] >= 0
 zxi_12_3: - xi[12] + z[420] >= 0
 zxi_13_3: - xi[13] + z[421] >= 0
 zxi_14_3: - xi[14] + z[422] >= 0
 zxi_15_3: - xi[15] + z[423] >= 0
 zxi_16_3: - xi[16] + z[424] >= 0
 zxi_17_3: - xi[17] + z[425] >= 0
 zxi_18_3: - xi[18] + z[426] >= 0
 zxi_19_3: - xi[19] + z[427] >= 0
 zxi_20_3: - xi[20] + z[428] >= 0
 zxi_21_3: - xi[21] + z[429] >= 0
 zxi_22_3: - xi[22] + z[430] >= 0
 zxi_23_3: - xi[23] + z[431] >= 0
 zxi_24_3: - xi[24] + z[432] >= 0
 zxi_25_3: - xi[25] + z[433] >= 0
 zxi_26_3: - xi[26] + z[434] >= 0
 zxi_27_3: - xi[27] + z[435] >= 0
 zxi_28_3: - xi[28] + z[436] >= 0
 zxi_29_3: - xi[29] + z[437] >= 0
 zxi_30_3: - xi[30] + z[438] >= 0
 zxi_31_3: - xi[31] + z[439] >= 0
 zxi_32_3: - xi[32] + z[440] >= 0
 zxi_33_3: - xi[33] + z[441] >= 0
 zxi_34_3: - xi[34] + z[442] >= 0
 zxi_35_3: - xi[35] + z[443] >= 0
 zxi_36_3: - xi[36] + z[444] >= 0
 zxi_37_3: - xi[37] + z[445] >= 0
 zxi_38_3: - xi[38] + z[446] >= 0
 zxi_39_3: - xi[39] + z[447] >= 0
 zxi_40_3: - xi[40] + z[448] >= 0
 zxi_41_3: - xi[41] + z[449] >= 0
 zxi_42_3: - xi[42] + z[450] >= 0
 zxi_43_3: - xi[43] + z[451] >= 0
 zxi_44_3: - xi[44] + z[452] >= 0
 zxi_45_3: - xi[45] + z[453] >= 0
 zxi_46_3: - xi[46] + z[454] >= 0
 zxi_47_3: - xi[47] + z[455] >= 0
 zxi_48_3: - xi[48] + z[456] >= 0
 zxi_49_3: - xi[49] + z[457] >= 0
 zxi_50_3: - xi[50] + z[458] >= 0
 zxi_51_3: - xi[51] + z[459] >= 0
 zxi_52_3: - xi[52] + z[460] >= 0
 zxi_53_3: - xi[53] + z[461] >= 0
 zxi_54_3: - xi[54] + z[462] >= 0
 zxi_55_3: - xi[55] + z[463] >= 0
 zxi_56_3: - xi[56] + z[464] >= 0
 zxi_57_3: - xi[57] + z[465] >= 0
 zxi_58_3: - xi[58] + z[466] >= 0
 zxi_59_3: - xi[59] + z[467] >= 0
 zxi_60_3: - xi[60] + z[468] >= 0
 zxi_61_3: - xi[61] + z[469] >= 0
 zxi_62_3: - xi[62] + z[470] >= 0
 zxi_63_3: - xi[63] + z[471] >= 0
 zxi_64_3: - xi[64] + z[472] >= 0
 zxi_65_3: - xi[65] + z[473] >= 0
 zxi_66_3: - xi[66] + z[474] >= 0
 zxi_67_3: - xi[67] + z[475] >= 0
 zxi_68_3: - xi[68] + z[476] >= 0
 zxi_69_3: - xi[69] + z[477] >= 0
 zxi_70_3: - xi[70] + z[478] >= 0
 zxi_71_3: - xi[71] + z[479] >= 0
 zxi_72_3: - xi[72] + z[480] >= 0
 zxi_73_3: - xi[73] + z[481] >= 0
 zxi_74_3: - xi[74] + z[482] >= 0
 zxi_75_3: - xi[75] + z[483] >= 0
 zxi_76_3: - xi[76] + z[484] >= 0
 zxi_77_3: - xi[77] + z[485] >= 0
 zxi_78_3: - xi[78] + z[486] >= 0
 zxi_79_3: - xi[79] + z[487] >= 0
 zxi_80_3: - xi[80] + z[488] >= 0
 zxi_81_3: - xi[81] + z[489] >= 0
 zxi_82_3: - xi[82] + z[490] >= 0
 zxi_83_3: - xi[83] + z[491] >= 0
 zxi_84_3: - xi[84] + z[492] >= 0
 zxi_85_3: - xi[85] + z[493] >= 0
 zxi_86_3: - xi[86] + z[494] >= 0
 zxi_87_3: - xi[87] + z[495] >= 0
 zxi_88_3: - xi[88] + z[496] >= 0
 zxi_89_3: - xi[89] + z[497] >= 0
 zxi_90_3: - xi[90] + z[498] >= 0
 zxi_91_3: - xi[91] + z[499] >= 0
 zxi_92_3: - xi[92] + z[500] >= 0
 zxi_93_3: - xi[93] + z[501] >= 0
 zxi_94_3: - xi[94] + z[502] >= 0
 zxi_95_3: - xi[95] + z[503] >= 0
 zxi_96_3: - xi[96] + z[504] >= 0
 zxi_97_3: - xi[97] + z[505] >= 0
 zxi_98_3: - xi[98] + z[506] >= 0
 zxi_99_3: - xi[99] + z[507] >= 0
 zxi_100_3: - xi[100] + z[508] >= 0
 zxi_101_3: - xi[101] + z[509] >= 0
 zxi_102_3: - xi[102] + z[510] >= 0
 zxi_103_3: - xi[103] + z[511] >= 0
 zxi_104_3: - xi[104] + z[512] >= 0
 zxi_105_3: - xi[105] + z[513] >= 0
 zxi_106_3: - xi[106] + z[514] >= 0
 zxi_107_3: - xi[107] + z[515] >= 0
 zxi_108_3: - xi[108] + z[516] >= 0
 zxi_109_3: - xi[109] + z[517] >= 0
 zxi_110_3: - xi[110] + z[518] >= 0
 zxi_111_3: - xi[111] + z[519] >= 0
 zxi_112_3: - xi[112] + z[520] >= 0
 zxi_113_3: - xi[113] + z[521] >= 0
 zxi_114_3: - xi[114] + z[522] >= 0
 zxi_115_3: - xi[115] + z[523] >= 0
 zxi_116_3: - xi[116] + z[524] >= 0
 zxi_117_3: - xi[117] + z[525] >= 0
 zxi_118_3: - xi[118] + z[526] >= 0
 zxi_119_3: - xi[119] + z[527] >= 0
 zxi_120_3: - xi[120] + z[528] >= 0
 zxi_121_3: - xi[121] + z[529] >= 0
 zxi_122_3: - xi[122] + z[530] >= 0
 zxi_123_3: - xi[123] + z[531] >= 0
 zxi_124_3: - xi[124] + z[532] >= 0
 zxi_125_3: - xi[125] + z[533] >= 0
 zxi_126_3: - xi[126] + z[534] >= 0
 zxi_127_3: - xi[127] + z[535] >= 0
 zxi_128_3: - xi[128] + z[536] >= 0
 zxi_129_3: - xi[129] + z[537] >= 0
 zxi_130_3: - xi[130] + z[538] >= 0
 zxi_131_3: - xi[131] + z[539] >= 0
 zxi_132_3: - xi[132] + z[540] >= 0
 zxi_133_3: - xi[133] + z[541] >= 0
 zxi_134_3: - xi[134] + z[542] >= 0
 zxi_135_3: - xi[135] + z[543] >= 0
 zxi_0_4: - xi[0] + z[544] >= 0
 zxi_1_4: - xi[1] + z[545] >= 0
 zxi_2_4: - xi[2] + z[546] >= 0
 zxi_3_4: - xi[3] + z[547] >= 0
 zxi_4_4: - xi[4] + z[548] >= 0
 zxi_5_4: - xi[5] + z[549] >= 0
 zxi_6_4: - xi[6] + z[550] >= 0
 zxi_7_4: - xi[7] + z[551] >= 0
 zxi_8_4: - xi[8] + z[552] >= 0
 zxi_9_4: - xi[9] + z[553] >= 0
 zxi_10_4: - xi[10] + z[554] >= 0
 zxi_11_4: - xi[11] + z[555] >= 0
 zxi_12_4: - xi[12] + z[556] >= 0
 zxi_13_4: - xi[13] + z[557] >= 0
 zxi_14_4: - xi[14] + z[558] >= 0
 zxi_15_4: - xi[15] + z[559] >= 0
 zxi_16_4: - xi[16] + z[560] >= 0
 zxi_17_4: - xi[17] + z[561] >= 0
 zxi_18_4: - xi[18] + z[562] >= 0
 zxi_19_4: - xi[19] + z[563] >= 0
 zxi_20_4: - xi[20] + z[564] >= 0
 zxi_21_4: - xi[21] + z[565] >= 0
 zxi_22_4: - xi[22] + z[566] >= 0
 zxi_23_4: - xi[23] + z[567] >= 0
 zxi_24_4: - xi[24] + z[568] >= 0
 zxi_25_4: - xi[25] + z[569] >= 0
 zxi_26_4: - xi[26] + z[570] >= 0
 zxi_27_4: - xi[27] + z[571] >= 0
 zxi_28_4: - xi[28] + z[572] >= 0
 zxi_29_4: - xi[29] + z[573] >= 0
 zxi_30_4: - xi[30] + z[574] >= 0
 zxi_31_4: - xi[31] + z[575] >= 0
 zxi_32_4: - xi[32] + z[576] >= 0
 zxi_33_4: - xi[33] + z[577] >= 0
 zxi_34_4: - xi[34] + z[578] >= 0
 zxi_35_4: - xi[35] + z[579] >= 0
 zxi_36_4: - xi[36] + z[580] >= 0
 zxi_37_4: - xi[37] + z[581] >= 0
 zxi_38_4: - xi[38] + z[582] >= 0
 zxi_39_4: - xi[39] + z[583] >= 0
 zxi_40_4: - xi[40] + z[584] >= 0
 zxi_41_4: - xi[41] + z[585] >= 0
 zxi_42_4: - xi[42] + z[586] >= 0
 zxi_43_4: - xi[43] + z[587] >= 0
 zxi_44_4: - xi[44] + z[588] >= 0
 zxi_45_4: - xi[45] + z[589] >= 0
 zxi_46_4: - xi[46] + z[590] >= 0
 zxi_47_4: - xi[47] + z[591] >= 0
 zxi_48_4: - xi[48] + z[592] >= 0
 zxi_49_4: - xi[49] + z[593] >= 0
 zxi_50_4: - xi[50] + z[594] >= 0
 zxi_51_4: - xi[51] + z[595] >= 0
 zxi_52_4: - xi[52] + z[596] >= 0
 zxi_53_4: - xi[53] + z[597] >= 0
 zxi_54_4: - xi[54] + z[598] >= 0
 zxi_55_4: - xi[55] + z[599] >= 0
 zxi_56_4: - xi[56] + z[600] >= 0
 zxi_57_4: - xi[57] + z[601] >= 0
 zxi_58_4: - xi[58] + z[602] >= 0
 zxi_59_4: - xi[59] + z[603] >= 0
 zxi_60_4: - xi[60] + z[604] >= 0
 zxi_61_4: - xi[61] + z[605] >= 0
 zxi_62_4: - xi[62] + z[606] >= 0
 zxi_63_4: - xi[63] + z[607] >= 0
 zxi_64_4: - xi[64] + z[608] >= 0
 zxi_65_4: - xi[65] + z[609] >= 0
 zxi_66_4: - xi[66] + z[610] >= 0
 zxi_67_4: - xi[67] + z[611] >= 0
 zxi_68_4: - xi[68] + z[612] >= 0
 zxi_69_4: - xi[69] + z[613] >= 0
 zxi_70_4: - xi[70] + z[614] >= 0
 zxi_71_4: - xi[71] + z[615] >= 0
 zxi_72_4: - xi[72] + z[616] >= 0
 zxi_73_4: - xi[73] + z[617] >= 0
 zxi_74_4: - xi[74] + z[618] >= 0
 zxi_75_4: - xi[75] + z[619] >= 0
 zxi_76_4: - xi[76] + z[620] >= 0
 zxi_77_4: - xi[77] + z[621] >= 0
 zxi_78_4: - xi[78] + z[622] >= 0
 zxi_79_4: - xi[79] + z[623] >= 0
 zxi_80_4: - xi[80] + z[624] >= 0
 zxi_81_4: - xi[81] + z[625] >= 0
 zxi_82_4: - xi[82] + z[626] >= 0
 zxi_83_4: - xi[83] + z[627] >= 0
 zxi_84_4: - xi[84] + z[628] >= 0
 zxi_85_4: - xi[85] + z[629] >= 0
 zxi_86_4: - xi[86] + z[630] >= 0
 zxi_87_4: - xi[87] + z[631] >= 0
 zxi_88_4: - xi[88] + z[632] >= 0
 zxi_89_4: - xi[89] + z[633] >= 0
 zxi_90_4: - xi[90] + z[634] >= 0
 zxi_91_4: - xi[91] + z[635] >= 0
 zxi_92_4: - xi[92] + z[636] >= 0
 zxi_93_4: - xi[93] + z[637] >= 0
 zxi_94_4: - xi[94] + z[638] >= 0
 zxi_95_4: - xi[95] + z[639] >= 0
 zxi_96_4: - xi[96] + z[640] >= 0
 zxi_97_4: - xi[97] + z[641] >= 0
 zxi_98_4: - xi[98] + z[642] >= 0
 zxi_99_4: - xi[99] + z[643] >= 0
 zxi_100_4: - xi[100] + z[644] >= 0
 zxi_101_4: - xi[101] + z[645] >= 0
 zxi_102_4: - xi[102] + z[646] >= 0
 zxi_103_4: - xi[103] + z[647] >= 0
 zxi_104_4: - xi[104] + z[648] >= 0
 zxi_105_4: - xi[105] + z[649] >= 0
 zxi_106_4: - xi[106] + z[650] >= 0
 zxi_107_4: - xi[107] + z[651] >= 0
 zxi_108_4: - xi[108] + z[652] >= 0
 zxi_109_4: - xi[109] + z[653] >= 0
 zxi_110_4: - xi[110] + z[654] >= 0
 zxi_111_4: - xi[111] + z[655] >= 0
 zxi_112_4: - xi[112] + z[656] >= 0
 zxi_113_4: - xi[113] + z[657] >= 0
 zxi_114_4: - xi[114] + z[658] >= 0
 zxi_115_4: - xi[115] + z[659] >= 0
 zxi_116_4: - xi[116] + z[660] >= 0
 zxi_117_4: - xi[117] + z[661] >= 0
 zxi_118_4: - xi[118] + z[662] >= 0
 zxi_119_4: - xi[119] + z[663] >= 0
 zxi_120_4: - xi[120] + z[664] >= 0
 zxi_121_4: - xi[121] + z[665] >= 0
 zxi_122_4: - xi[122] + z[666] >= 0
 zxi_123_4: - xi[123] + z[667] >= 0
 zxi_124_4: - xi[124] + z[668] >= 0
 zxi_125_4: - xi[125] + z[669] >= 0
 zxi_126_4: - xi[126] + z[670] >= 0
 zxi_127_4: - xi[127] + z[671] >= 0
 zxi_128_4: - xi[128] + z[672] >= 0
 zxi_129_4: - xi[129] + z[673] >= 0
 zxi_130_4: - xi[130] + z[674] >= 0
 zxi_131_4: - xi[131] + z[675] >= 0
 zxi_132_4: - xi[132] + z[676] >= 0
 zxi_133_4: - xi[133] + z[677] >= 0
 zxi_134_4: - xi[134] + z[678] >= 0
 zxi_135_4: - xi[135] + z[679] >= 0
 zxi_0_5: - xi[0] + z[680] >= 0
 zxi_1_5: - xi[1] + z[681] >= 0
 zxi_2_5: - xi[2] + z[682] >= 0
 zxi_3_5: - xi[3] + z[683] >= 0
 zxi_4_5: - xi[4] + z[684] >= 0
 zxi_5_5: - xi[5] + z[685] >= 0
 zxi_6_5: - xi[6] + z[686] >= 0
 zxi_7_5: - xi[7] + z[687] >= 0
 zxi_8_5: - xi[8] + z[688] >= 0
 zxi_9_5: - xi[9] + z[689] >= 0
 zxi_10_5: - xi[10] + z[690] >= 0
 zxi_11_5: - xi[11] + z[691] >= 0
 zxi_12_5: - xi[12] + z[692] >= 0
 zxi_13_5: - xi[13] + z[693] >= 0
 zxi_14_5: - xi[14] + z[694] >= 0
 zxi_15_5: - xi[15] + z[695] >= 0
 zxi_16_5: - xi[16] + z[696] >= 0
 zxi_17_5: - xi[17] + z[697] >= 0
 zxi_18_5: - xi[18] + z[698] >= 0
 zxi_19_5: - xi[19] + z[699] >= 0
 zxi_20_5: - xi[20] + z[700] >= 0
 zxi_21_5: - xi[21] + z[701] >= 0
 zxi_22_5: - xi[22] + z[702] >= 0
 zxi_23_5: - xi[23] + z[703] >= 0
 zxi_24_5: - xi[24] + z[704] >= 0
 zxi_25_5: - xi[25] + z[705] >= 0
 zxi_26_5: - xi[26] + z[706] >= 0
 zxi_27_5: - xi[27] + z[707] >= 0
 zxi_28_5: - xi[28] + z[708] >= 0
 zxi_29_5: - xi[29] + z[709] >= 0
 zxi_30_5: - xi[30] + z[710] >= 0
 zxi_31_5: - xi[31] + z[711] >= 0
 zxi_32_5: - xi[32] + z[712] >= 0
 zxi_33_5: - xi[33] + z[713] >= 0
 zxi_34_5: - xi[34] + z[714] >= 0
 zxi_35_5: - xi[35] + z[715] >= 0
 zxi_36_5: - xi[36] + z[716] >= 0
 zxi_37_5: - xi[37] + z[717] >= 0
 zxi_38_5: - xi[38] + z[718] >= 0
 zxi_39_5: - xi[39] + z[719] >= 0
 zxi_40_5: - xi[40] + z[720] >= 0
 zxi_41_5: - xi[41] + z[721] >= 0
 zxi_42_5: - xi[42] + z[722] >= 0
 zxi_43_5: - xi[43] + z[723] >= 0
 zxi_44_5: - xi[44] + z[724] >= 0
 zxi_45_5: - xi[45] + z[725] >= 0
 zxi_46_5: - xi[46] + z[726] >= 0
 zxi_47_5: - xi[47] + z[727] >= 0
 zxi_48_5: - xi[48] + z[728] >= 0
 zxi_49_5: - xi[49] + z[729] >= 0
 zxi_50_5: - xi[50] + z[730] >= 0
 zxi_51_5: - xi[51] + z[731] >= 0
 zxi_52_5: - xi[52] + z[732] >= 0
 zxi_53_5: - xi[53] + z[733] >= 0
 zxi_54_5: - xi[54] + z[734] >= 0
 zxi_55_5: - xi[55] + z[735] >= 0
 zxi_56_5: - xi[56] + z[736] >= 0
 zxi_57_5: - xi[57] + z[737] >= 0
 zxi_58_5: - xi[58] + z[738] >= 0
 zxi_59_5: - xi[59] + z[739] >= 0
 zxi_60_5: - xi[60] + z[740] >= 0
 zxi_61_5: - xi[61] + z[741] >= 0
 zxi_62_5: - xi[62] + z[742] >= 0
 zxi_63_5: - xi[63] + z[743] >= 0
 zxi_64_5: - xi[64] + z[744] >= 0
 zxi_65_5: - xi[65] + z[745] >= 0
 zxi_66_5: - xi[66] + z[746] >= 0
 zxi_67_5: - xi[67] + z[747] >= 0
 zxi_68_5: - xi[68] + z[748] >= 0
 zxi_69_5: - xi[69] + z[749] >= 0
 zxi_70_5: - xi[70] + z[750] >= 0
 zxi_71_5: - xi[71] + z[751] >= 0
 zxi_72_5: - xi[72] + z[752] >= 0
 zxi_73_5: - xi[73] + z[753] >= 0
 zxi_74_5: - xi[74] + z[754] >= 0
 zxi_75_5: - xi[75] + z[755] >= 0
 zxi_76_5: - xi[76] + z[756] >= 0
 zxi_77_5: - xi[77] + z[757] >= 0
 zxi_78_5: - xi[78] + z[758] >= 0
 zxi_79_5: - xi[79] + z[759] >= 0
 zxi_80_5: - xi[80] + z[760] >= 0
 zxi_81_5: - xi[81] + z[761] >= 0
 zxi_82_5: - xi[82] + z[762] >= 0
 zxi_83_5: - xi[83] + z[763] >= 0
 zxi_84_5: - xi[84] + z[764] >= 0
 zxi_85_5: - xi[85] + z[765] >= 0
 zxi_86_5: - xi[86] + z[766] >= 0
 zxi_87_5: - xi[87] + z[767] >= 0
 zxi_88_5: - xi[88] + z[768] >= 0
 zxi_89_5: - xi[89] + z[769] >= 0
 zxi_90_5: - xi[90] + z[770] >= 0
 zxi_91_5: - xi[91] + z[771] >= 0
 zxi_92_5: - xi[92] + z[772] >= 0
 zxi_93_5: - xi[93] + z[773] >= 0
 zxi_94_5: - xi[94] + z[774] >= 0
 zxi_95_5: - xi[95] + z[775] >= 0
 zxi_96_5: - xi[96] + z[776] >= 0
 zxi_97_5: - xi[97] + z[777] >= 0
 zxi_98_5: - xi[98] + z[778] >= 0
 zxi_99_5: - xi[99] + z[779] >= 0
 zxi_100_5: - xi[100] + z[780] >= 0
 zxi_101_5: - xi[101] + z[781] >= 0
 zxi_102_5: - xi[102] + z[782] >= 0
 zxi_103_5: - xi[103] + z[783] >= 0
 zxi_104_5: - xi[104] + z[784] >= 0
 zxi_105_5: - xi[105] + z[785] >= 0
 zxi_106_5: - xi[106] + z[786] >= 0
 zxi_107_5: - xi[107] + z[787] >= 0
 zxi_108_5: - xi[108] + z[788] >= 0
 zxi_109_5: - xi[109] + z[789] >= 0
 zxi_110_5: - xi[110] + z[790] >= 0
 zxi_111_5: - xi[111] + z[791] >= 0
 zxi_112_5: - xi[112] + z[792] >= 0
 zxi_113_5: - xi[113] + z[793] >= 0
 zxi_114_5: - xi[114] + z[794] >= 0
 zxi_115_5: - xi[115] + z[795] >= 0
 zxi_116_5: - xi[116] + z[796] >= 0
 zxi_117_5: - xi[117] + z[797] >= 0
 zxi_118_5: - xi[118] + z[798] >= 0
 zxi_119_5: - xi[119] + z[799] >= 0
 zxi_120_5: - xi[120] + z[800] >= 0
 zxi_121_5: - xi[121] + z[801] >= 0
 zxi_122_5: - xi[122] + z[802] >= 0
 zxi_123_5: - xi[123] + z[803] >= 0
 zxi_124_5: - xi[124] + z[804] >= 0
 zxi_125_5: - xi[125] + z[805] >= 0
 zxi_126_5: - xi[126] + z[806] >= 0
 zxi_127_5: - xi[127] + z[807] >= 0
 zxi_128_5: - xi[128] + z[808] >= 0
 zxi_129_5: - xi[129] + z[809] >= 0
 zxi_130_5: - xi[130] + z[810] >= 0
 zxi_131_5: - xi[131] + z[811] >= 0
 zxi_132_5: - xi[132] + z[812] >= 0
 zxi_133_5: - xi[133] + z[813] >= 0
 zxi_134_5: - xi[134] + z[814] >= 0
 zxi_135_5: - xi[135] + z[815] >= 0
 zxi_0_6: - xi[0] + z[816] >= 0
 zxi_1_6: - xi[1] + z[817] >= 0
 zxi_2_6: - xi[2] + z[818] >= 0
 zxi_3_6: - xi[3] + z[819] >= 0
 zxi_4_6: - xi[4] + z[820] >= 0
 zxi_5_6: - xi[5] + z[821] >= 0
 zxi_6_6: - xi[6] + z[822] >= 0
 zxi_7_6: - xi[7] + z[823] >= 0
 zxi_8_6: - xi[8] + z[824] >= 0
 zxi_9_6: - xi[9] + z[825] >= 0
 zxi_10_6: - xi[10] + z[826] >= 0
 zxi_11_6: - xi[11] + z[827] >= 0
 zxi_12_6: - xi[12] + z[828] >= 0
 zxi_13_6: - xi[13] + z[829] >= 0
 zxi_14_6: - xi[14] + z[830] >= 0
 zxi_15_6: - xi[15] + z[831] >= 0
 zxi_16_6: - xi[16] + z[832] >= 0
 zxi_17_6: - xi[17] + z[833] >= 0
 zxi_18_6: - xi[18] + z[834] >= 0
 zxi_19_6: - xi[19] + z[835] >= 0
 zxi_20_6: - xi[20] + z[836] >= 0
 zxi_21_6: - xi[21] + z[837] >= 0
 zxi_22_6: - xi[22] + z[838] >= 0
 zxi_23_6: - xi[23] + z[839] >= 0
 zxi_24_6: - xi[24] + z[840] >= 0
 zxi_25_6: - xi[25] + z[841] >= 0
 zxi_26_6: - xi[26] + z[842] >= 0
 zxi_27_6: - xi[27] + z[843] >= 0
 zxi_28_6: - xi[28] + z[844] >= 0
 zxi_29_6: - xi[29] + z[845] >= 0
 zxi_30_6: - xi[30] + z[846] >= 0
 zxi_31_6: - xi[31] + z[847] >= 0
 zxi_32_6: - xi[32] + z[848] >= 0
 zxi_33_6: - xi[33] + z[849] >= 0
 zxi_34_6: - xi[34] + z[850] >= 0
 zxi_35_6: - xi[35] + z[851] >= 0
 zxi_36_6: - xi[36] + z[852] >= 0
 zxi_37_6: - xi[37] + z[853] >= 0
 zxi_38_6: - xi[38] + z[854] >= 0
 zxi_39_6: - xi[39] + z[855] >= 0
 zxi_40_6: - xi[40] + z[856] >= 0
 zxi_41_6: - xi[41] + z[857] >= 0
 zxi_42_6: - xi[42] + z[858] >= 0
 zxi_43_6: - xi[43] + z[859] >= 0
 zxi_44_6: - xi[44] + z[860] >= 0
 zxi_45_6: - xi[45] + z[861] >= 0
 zxi_46_6: - xi[46] + z[862] >= 0
 zxi_47_6: - xi[47] + z[863] >= 0
 zxi_48_6: - xi[48] + z[864] >= 0
 zxi_49_6: - xi[49] + z[865] >= 0
 zxi_50_6: - xi[50] + z[866] >= 0
 zxi_51_6: - xi[51] + z[867] >= 0
 zxi_52_6: - xi[52] + z[868] >= 0
 zxi_53_6: - xi[53] + z[869] >= 0
 zxi_54_6: - xi[54] + z[870] >= 0
 zxi_55_6: - xi[55] + z[871] >= 0
 zxi_56_6: - xi[56] + z[872] >= 0
 zxi_57_6: - xi[57] + z[873] >= 0
 zxi_58_6: - xi[58] + z[874] >= 0
 zxi_59_6: - xi[59] + z[875] >= 0
 zxi_60_6: - xi[60] + z[876] >= 0
 zxi_61_6: - xi[61] + z[877] >= 0
 zxi_62_6: - xi[62] + z[878] >= 0
 zxi_63_6: - xi[63] + z[879] >= 0
 zxi_64_6: - xi[64] + z[880] >= 0
 zxi_65_6: - xi[65] + z[881] >= 0
 zxi_66_6: - xi[66] + z[882] >= 0
 zxi_67_6: - xi[67] + z[883] >= 0
 zxi_68_6: - xi[68] + z[884] >= 0
 zxi_69_6: - xi[69] + z[885] >= 0
 zxi_70_6: - xi[70] + z[886] >= 0
 zxi_71_6: - xi[71] + z[887] >= 0
 zxi_72_6: - xi[72] + z[888] >= 0
 zxi_73_6: - xi[73] + z[889] >= 0
 zxi_74_6: - xi[74] + z[890] >= 0
 zxi_75_6: - xi[75] + z[891] >= 0
 zxi_76_6: - xi[76] + z[892] >= 0
 zxi_77_6: - xi[77] + z[893] >= 0
 zxi_78_6: - xi[78] + z[894] >= 0
 zxi_79_6: - xi[79] + z[895] >= 0
 zxi_80_6: - xi[80] + z[896] >= 0
 zxi_81_6: - xi[81] + z[897] >= 0
 zxi_82_6: - xi[82] + z[898] >= 0
 zxi_83_6: - xi[83] + z[899] >= 0
 zxi_84_6: - xi[84] + z[900] >= 0
 zxi_85_6: - xi[85] + z[901] >= 0
 zxi_86_6: - xi[86] + z[902] >= 0
 zxi_87_6: - xi[87] + z[903] >= 0
 zxi_88_6: - xi[88] + z[904] >= 0
 zxi_89_6: - xi[89] + z[905] >= 0
 zxi_90_6: - xi[90] + z[906] >= 0
 zxi_91_6: - xi[91] + z[907] >= 0
 zxi_92_6: - xi[92] + z[908] >= 0
 zxi_93_6: - xi[93] + z[909] >= 0
 zxi_94_6: - xi[94] + z[910] >= 0
 zxi_95_6: - xi[95] + z[911] >= 0
 zxi_96_6: - xi[96] + z[912] >= 0
 zxi_97_6: - xi[97] + z[913] >= 0
 zxi_98_6: - xi[98] + z[914] >= 0
 zxi_99_6: - xi[99] + z[915] >= 0
 zxi_100_6: - xi[100] + z[916] >= 0
 zxi_101_6: - xi[101] + z[917] >= 0
 zxi_102_6: - xi[102] + z[918] >= 0
 zxi_103_6: - xi[103] + z[919] >= 0
 zxi_104_6: - xi[104] + z[920] >= 0
 zxi_105_6: - xi[105] + z[921] >= 0
 zxi_106_6: - xi[106] + z[922] >= 0
 zxi_107_6: - xi[107] + z[923] >= 0
 zxi_108_6: - xi[108] + z[924] >= 0
 zxi_109_6: - xi[109] + z[925] >= 0
 zxi_110_6: - xi[110] + z[926] >= 0
 zxi_111_6: - xi[111] + z[927] >= 0
 zxi_112_6: - xi[112] + z[928] >= 0
 zxi_113_6: - xi[113] + z[929] >= 0
 zxi_114_6: - xi[114] + z[930] >= 0
 zxi_115_6: - xi[115] + z[931] >= 0
 zxi_116_6: - xi[116] + z[932] >= 0
 zxi_117_6: - xi[117] + z[933] >= 0
 zxi_118_6: - xi[118] + z[934] >= 0
 zxi_119_6: - xi[119] + z[935] >= 0
 zxi_120_6: - xi[120] + z[936] >= 0
 zxi_121_6: - xi[121] + z[937] >= 0
 zxi_122_6: - xi[122] + z[938] >= 0
 zxi_123_6: - xi[123] + z[939] >= 0
 zxi_124_6: - xi[124] + z[940] >= 0
 zxi_125_6: - xi[125] + z[941] >= 0
 zxi_126_6: - xi[126] + z[942] >= 0
 zxi_127_6: - xi[127] + z[943] >= 0
 zxi_128_6: - xi[128] + z[944] >= 0
 zxi_129_6: - xi[129] + z[945] >= 0
 zxi_130_6: - xi[130] + z[946] >= 0
 zxi_131_6: - xi[131] + z[947] >= 0
 zxi_132_6: - xi[132] + z[948] >= 0
 zxi_133_6: - xi[133] + z[949] >= 0
 zxi_134_6: - xi[134] + z[950] >= 0
 zxi_135_6: - xi[135] + z[951] >= 0
 zxi_0_7: - xi[0] + z[952] >= 0
 zxi_1_7: - xi[1] + z[953] >= 0
 zxi_2_7: - xi[2] + z[954] >= 0
 zxi_3_7: - xi[3] + z[955] >= 0
 zxi_4_7: - xi[4] + z[956] >= 0
 zxi_5_7: - xi[5] + z[957] >= 0
 zxi_6_7: - xi[6] + z[958] >= 0
 zxi_7_7: - xi[7] + z[959] >= 0
 zxi_8_7: - xi[8] + z[960] >= 0
 zxi_9_7: - xi[9] + z[961] >= 0
 zxi_10_7: - xi[10] + z[962] >= 0
 zxi_11_7: - xi[11] + z[963] >= 0
 zxi_12_7: - xi[12] + z[964] >= 0
 zxi_13_7: - xi[13] + z[965] >= 0
 zxi_14_7: - xi[14] + z[966] >= 0
 zxi_15_7: - xi[15] + z[967] >= 0
 zxi_16_7: - xi[16] + z[968] >= 0
 zxi_17_7: - xi[17] + z[969] >= 0
 zxi_18_7: - xi[18] + z[970] >= 0
 zxi_19_7: - xi[19] + z[971] >= 0
 zxi_20_7: - xi[20] + z[972] >= 0
 zxi_21_7: - xi[21] + z[973] >= 0
 zxi_22_7: - xi[22] + z[974] >= 0
 zxi_23_7: - xi[23] + z[975] >= 0
 zxi_24_7: - xi[24] + z[976] >= 0
 zxi_25_7: - xi[25] + z[977] >= 0
 zxi_26_7: - xi[26] + z[978] >= 0
 zxi_27_7: - xi[27] + z[979] >= 0
 zxi_28_7: - xi[28] + z[980] >= 0
 zxi_29_7: - xi[29] + z[981] >= 0
 zxi_30_7: - xi[30] + z[982] >= 0
 zxi_31_7: - xi[31] + z[983] >= 0
 zxi_32_7: - xi[32] + z[984] >= 0
 zxi_33_7: - xi[33] + z[985] >= 0
 zxi_34_7: - xi[34] + z[986] >= 0
 zxi_35_7: - xi[35] + z[987] >= 0
 zxi_36_7: - xi[36] + z[988] >= 0
 zxi_37_7: - xi[37] + z[989] >= 0
 zxi_38_7: - xi[38] + z[990] >= 0
 zxi_39_7: - xi[39] + z[991] >= 0
 zxi_40_7: - xi[40] + z[992] >= 0
 zxi_41_7: - xi[41] + z[993] >= 0
 zxi_42_7: - xi[42] + z[994] >= 0
 zxi_43_7: - xi[43] + z[995] >= 0
 zxi_44_7: - xi[44] + z[996] >= 0
 zxi_45_7: - xi[45] + z[997] >= 0
 zxi_46_7: - xi[46] + z[998] >= 0
 zxi_47_7: - xi[47] + z[999] >= 0
 zxi_48_7: - xi[48] + z[1000] >= 0
 zxi_49_7: - xi[49] + z[1001] >= 0
 zxi_50_7: - xi[50] + z[1002] >= 0
 zxi_51_7: - xi[51] + z[1003] >= 0
 zxi_52_7: - xi[52] + z[1004] >= 0
 zxi_53_7: - xi[53] + z[1005] >= 0
 zxi_54_7: - xi[54] + z[1006] >= 0
 zxi_55_7: - xi[55] + z[1007] >= 0
 zxi_56_7: - xi[56] + z[1008] >= 0
 zxi_57_7: - xi[57] + z[1009] >= 0
 zxi_58_7: - xi[58] + z[1010] >= 0
 zxi_59_7: - xi[59] + z[1011] >= 0
 zxi_60_7: - xi[60] + z[1012] >= 0
 zxi_61_7: - xi[61] + z[1013] >= 0
 zxi_62_7: - xi[62] + z[1014] >= 0
 zxi_63_7: - xi[63] + z[1015] >= 0
 zxi_64_7: - xi[64] + z[1016] >= 0
 zxi_65_7: - xi[65] + z[1017] >= 0
 zxi_66_7: - xi[66] + z[1018] >= 0
 zxi_67_7: - xi[67] + z[1019] >= 0
 zxi_68_7: - xi[68] + z[1020] >= 0
 zxi_69_7: - xi[69] + z[1021] >= 0
 zxi_70_7: - xi[70] + z[1022] >= 0
 zxi_71_7: - xi[71] + z[1023] >= 0
 zxi_72_7: - xi[72] + z[1024] >= 0
 zxi_73_7: - xi[73] + z[1025] >= 0
 zxi_74_7: - xi[74] + z[1026] >= 0
 zxi_75_7: - xi[75] + z[1027] >= 0
 zxi_76_7: - xi[76] + z[1028] >= 0
 zxi_77_7: - xi[77] + z[1029] >= 0
 zxi_78_7: - xi[78] + z[1030] >= 0
 zxi_79_7: - xi[79] + z[1031] >= 0
 zxi_80_7: - xi[80] + z[1032] >= 0
 zxi_81_7: - xi[81] + z[1033] >= 0
 zxi_82_7: - xi[82] + z[1034] >= 0
 zxi_83_7: - xi[83] + z[1035] >= 0
 zxi_84_7: - xi[84] + z[1036] >= 0
 zxi_85_7: - xi[85] + z[1037] >= 0
 zxi_86_7: - xi[86] + z[1038] >= 0
 zxi_87_7: - xi[87] + z[1039] >= 0
 zxi_88_7: - xi[88] + z[1040] >= 0
 zxi_89_7: - xi[89] + z[1041] >= 0
 zxi_90_7: - xi[90] + z[1042] >= 0
 zxi_91_7: - xi[91] + z[1043] >= 0
 zxi_92_7: - xi[92] + z[1044] >= 0
 zxi_93_7: - xi[93] + z[1045] >= 0
 zxi_94_7: - xi[94] + z[1046] >= 0
 zxi_95_7: - xi[95] + z[1047] >= 0
 zxi_96_7: - xi[96] + z[1048] >= 0
 zxi_97_7: - xi[97] + z[1049] >= 0
 zxi_98_7: - xi[98] + z[1050] >= 0
 zxi_99_7: - xi[99] + z[1051] >= 0
 zxi_100_7: - xi[100] + z[1052] >= 0
 zxi_101_7: - xi[101] + z[1053] >= 0
 zxi_102_7: - xi[102] + z[1054] >= 0
 zxi_103_7: - xi[103] + z[1055] >= 0
 zxi_104_7: - xi[104] + z[1056] >= 0
 zxi_105_7: - xi[105] + z[1057] >= 0
 zxi_106_7: - xi[106] + z[1058] >= 0
 zxi_107_7: - xi[107] + z[1059] >= 0
 zxi_108_7: - xi[108] + z[1060] >= 0
 zxi_109_7: - xi[109] + z[1061] >= 0
 zxi_110_7: - xi[110] + z[1062] >= 0
 zxi_111_7: - xi[111] + z[1063] >= 0
 zxi_112_7: - xi[112] + z[1064] >= 0
 zxi_113_7: - xi[113] + z[1065] >= 0
 zxi_114_7: - xi[114] + z[1066] >= 0
 zxi_115_7: - xi[115] + z[1067] >= 0
 zxi_116_7: - xi[116] + z[1068] >= 0
 zxi_117_7: - xi[117] + z[1069] >= 0
 zxi_118_7: - xi[118] + z[1070] >= 0
 zxi_119_7: - xi[119] + z[1071] >= 0
 zxi_120_7: - xi[120] + z[1072] >= 0
 zxi_121_7: - xi[121] + z[1073] >= 0
 zxi_122_7: - xi[122] + z[1074] >= 0
 zxi_123_7: - xi[123] + z[1075] >= 0
 zxi_124_7: - xi[124] + z[1076] >= 0
 zxi_125_7: - xi[125] + z[1077] >= 0
 zxi_126_7: - xi[126] + z[1078] >= 0
 zxi_127_7: - xi[127] + z[1079] >= 0
 zxi_128_7: - xi[128] + z[1080] >= 0
 zxi_129_7: - xi[129] + z[1081] >= 0
 zxi_130_7: - xi[130] + z[1082] >= 0
 zxi_131_7: - xi[131] + z[1083] >= 0
 zxi_132_7: - xi[132] + z[1084] >= 0
 zxi_133_7: - xi[133] + z[1085] >= 0
 zxi_134_7: - xi[134] + z[1086] >= 0
 zxi_135_7: - xi[135] + z[1087] >= 0
 zxi_0_8: - xi[0] + z[1088] >= 0
 zxi_1_8: - xi[1] + z[1089] >= 0
 zxi_2_8: - xi[2] + z[1090] >= 0
 zxi_3_8: - xi[3] + z[1091] >= 0
 zxi_4_8: - xi[4] + z[1092] >= 0
 zxi_5_8: - xi[5] + z[1093] >= 0
 zxi_6_8: - xi[6] + z[1094] >= 0
 zxi_7_8: - xi[7] + z[1095] >= 0
 zxi_8_8: - xi[8] + z[1096] >= 0
 zxi_9_8: - xi[9] + z[1097] >= 0
 zxi_10_8: - xi[10] + z[1098] >= 0
 zxi_11_8: - xi[11] + z[1099] >= 0
 zxi_12_8: - xi[12] + z[1100] >= 0
 zxi_13_8: - xi[13] + z[1101] >= 0
 zxi_14_8: - xi[14] + z[1102] >= 0
 zxi_15_8: - xi[15] + z[1103] >= 0
 zxi_16_8: - xi[16] + z[1104] >= 0
 zxi_17_8: - xi[17] + z[1105] >= 0
 zxi_18_8: - xi[18] + z[1106] >= 0
 zxi_19_8: - xi[19] + z[1107] >= 0
 zxi_20_8: - xi[20] + z[1108] >= 0
 zxi_21_8: - xi[21] + z[1109] >= 0
 zxi_22_8: - xi[22] + z[1110] >= 0
 zxi_23_8: - xi[23] + z[1111] >= 0
 zxi_24_8: - xi[24] + z[1112] >= 0
 zxi_25_8: - xi[25] + z[1113] >= 0
 zxi_26_8: - xi[26] + z[1114] >= 0
 zxi_27_8: - xi[27] + z[1115] >= 0
 zxi_28_8: - xi[28] + z[1116] >= 0
 zxi_29_8: - xi[29] + z[1117] >= 0
 zxi_30_8: - xi[30] + z[1118] >= 0
 zxi_31_8: - xi[31] + z[1119] >= 0
 zxi_32_8: - xi[32] + z[1120] >= 0
 zxi_33_8: - xi[33] + z[1121] >= 0
 zxi_34_8: - xi[34] + z[1122] >= 0
 zxi_35_8: - xi[35] + z[1123] >= 0
 zxi_36_8: - xi[36] + z[1124] >= 0
 zxi_37_8: - xi[37] + z[1125] >= 0
 zxi_38_8: - xi[38] + z[1126] >= 0
 zxi_39_8: - xi[39] + z[1127] >= 0
 zxi_40_8: - xi[40] + z[1128] >= 0
 zxi_41_8: - xi[41] + z[1129] >= 0
 zxi_42_8: - xi[42] + z[1130] >= 0
 zxi_43_8: - xi[43] + z[1131] >= 0
 zxi_44_8: - xi[44] + z[1132] >= 0
 zxi_45_8: - xi[45] + z[1133] >= 0
 zxi_46_8: - xi[46] + z[1134] >= 0
 zxi_47_8: - xi[47] + z[1135] >= 0
 zxi_48_8: - xi[48] + z[1136] >= 0
 zxi_49_8: - xi[49] + z[1137] >= 0
 zxi_50_8: - xi[50] + z[1138] >= 0
 zxi_51_8: - xi[51] + z[1139] >= 0
 zxi_52_8: - xi[52] + z[1140] >= 0
 zxi_53_8: - xi[53] + z[1141] >= 0
 zxi_54_8: - xi[54] + z[1142] >= 0
 zxi_55_8: - xi[55] + z[1143] >= 0
 zxi_56_8: - xi[56] + z[1144] >= 0
 zxi_57_8: - xi[57] + z[1145] >= 0
 zxi_58_8: - xi[58] + z[1146] >= 0
 zxi_59_8: - xi[59] + z[1147] >= 0
 zxi_60_8: - xi[60] + z[1148] >= 0
 zxi_61_8: - xi[61] + z[1149] >= 0
 zxi_62_8: - xi[62] + z[1150] >= 0
 zxi_63_8: - xi[63] + z[1151] >= 0
 zxi_64_8: - xi[64] + z[1152] >= 0
 zxi_65_8: - xi[65] + z[1153] >= 0
 zxi_66_8: - xi[66] + z[1154] >= 0
 zxi_67_8: - xi[67] + z[1155] >= 0
 zxi_68_8: - xi[68] + z[1156] >= 0
 zxi_69_8: - xi[69] + z[1157] >= 0
 zxi_70_8: - xi[70] + z[1158] >= 0
 zxi_71_8: - xi[71] + z[1159] >= 0
 zxi_72_8: - xi[72] + z[1160] >= 0
 zxi_73_8: - xi[73] + z[1161] >= 0
 zxi_74_8: - xi[74] + z[1162] >= 0
 zxi_75_8: - xi[75] + z[1163] >= 0
 zxi_76_8: - xi[76] + z[1164] >= 0
 zxi_77_8: - xi[77] + z[1165] >= 0
 zxi_78_8: - xi[78] + z[1166] >= 0
 zxi_79_8: - xi[79] + z[1167] >= 0
 zxi_80_8: - xi[80] + z[1168] >= 0
 zxi_81_8: - xi[81] + z[1169] >= 0
 zxi_82_8: - xi[82] + z[1170] >= 0
 zxi_83_8: - xi[83] + z[1171] >= 0
 zxi_84_8: - xi[84] + z[1172] >= 0
 zxi_85_8: - xi[85] + z[1173] >= 0
 zxi_86_8: - xi[86] + z[1174] >= 0
 zxi_87_8: - xi[87] + z[1175] >= 0
 zxi_88_8: - xi[88] + z[1176] >= 0
 zxi_89_8: - xi[89] + z[1177] >= 0
 zxi_90_8: - xi[90] + z[1178] >= 0
 zxi_91_8: - xi[91] + z[1179] >= 0
 zxi_92_8: - xi[92] + z[1180] >= 0
 zxi_93_8: - xi[93] + z[1181] >= 0
 zxi_94_8: - xi[94] + z[1182] >= 0
 zxi_95_8: - xi[95] + z[1183] >= 0
 zxi_96_8: - xi[96] + z[1184] >= 0
 zxi_97_8: - xi[97] + z[1185] >= 0
 zxi_98_8: - xi[98] + z[1186] >= 0
 zxi_99_8: - xi[99] + z[1187] >= 0
 zxi_100_8: - xi[100] + z[1188] >= 0
 zxi_101_8: - xi[101] + z[1189] >= 0
 zxi_102_8: - xi[102] + z[1190] >= 0
 zxi_103_8: - xi[103] + z[1191] >= 0
 zxi_104_8: - xi[104] + z[1192] >= 0
 zxi_105_8: - xi[105] + z[1193] >= 0
 zxi_106_8: - xi[106] + z[1194] >= 0
 zxi_107_8: - xi[107] + z[1195] >= 0
 zxi_108_8: - xi[108] + z[1196] >= 0
 zxi_109_8: - xi[109] + z[1197] >= 0
 zxi_110_8: - xi[110] + z[1198] >= 0
 zxi_111_8: - xi[111] + z[1199] >= 0
 zxi_112_8: - xi[112] + z[1200] >= 0
 zxi_113_8: - xi[113] + z[1201] >= 0
 zxi_114_8: - xi[114] + z[1202] >= 0
 zxi_115_8: - xi[115] + z[1203] >= 0
 zxi_116_8: - xi[116] + z[1204] >= 0
 zxi_117_8: - xi[117] + z[1205] >= 0
 zxi_118_8: - xi[118] + z[1206] >= 0
 zxi_119_8: - xi[119] + z[1207] >= 0
 zxi_120_8: - xi[120] + z[1208] >= 0
 zxi_121_8: - xi[121] + z[1209] >= 0
 zxi_122_8: - xi[122] + z[1210] >= 0
 zxi_123_8: - xi[123] + z[1211] >= 0
 zxi_124_8: - xi[124] + z[1212] >= 0
 zxi_125_8: - xi[125] + z[1213] >= 0
 zxi_126_8: - xi[126] + z[1214] >= 0
 zxi_127_8: - xi[127] + z[1215] >= 0
 zxi_128_8: - xi[128] + z[1216] >= 0
 zxi_129_8: - xi[129] + z[1217] >= 0
 zxi_130_8: - xi[130] + z[1218] >= 0
 zxi_131_8: - xi[131] + z[1219] >= 0
 zxi_132_8: - xi[132] + z[1220] >= 0
 zxi_133_8: - xi[133] + z[1221] >= 0
 zxi_134_8: - xi[134] + z[1222] >= 0
 zxi_135_8: - xi[135] + z[1223] >= 0
 zxi_0_9: - xi[0] + z[1224] >= 0
 zxi_1_9: - xi[1] + z[1225] >= 0
 zxi_2_9: - xi[2] + z[1226] >= 0
 zxi_3_9: - xi[3] + z[1227] >= 0
 zxi_4_9: - xi[4] + z[1228] >= 0
 zxi_5_9: - xi[5] + z[1229] >= 0
 zxi_6_9: - xi[6] + z[1230] >= 0
 zxi_7_9: - xi[7] + z[1231] >= 0
 zxi_8_9: - xi[8] + z[1232] >= 0
 zxi_9_9: - xi[9] + z[1233] >= 0
 zxi_10_9: - xi[10] + z[1234] >= 0
 zxi_11_9: - xi[11] + z[1235] >= 0
 zxi_12_9: - xi[12] + z[1236] >= 0
 zxi_13_9: - xi[13] + z[1237] >= 0
 zxi_14_9: - xi[14] + z[1238] >= 0
 zxi_15_9: - xi[15] + z[1239] >= 0
 zxi_16_9: - xi[16] + z[1240] >= 0
 zxi_17_9: - xi[17] + z[1241] >= 0
 zxi_18_9: - xi[18] + z[1242] >= 0
 zxi_19_9: - xi[19] + z[1243] >= 0
 zxi_20_9: - xi[20] + z[1244] >= 0
 zxi_21_9: - xi[21] + z[1245] >= 0
 zxi_22_9: - xi[22] + z[1246] >= 0
 zxi_23_9: - xi[23] + z[1247] >= 0
 zxi_24_9: - xi[24] + z[1248] >= 0
 zxi_25_9: - xi[25] + z[1249] >= 0
 zxi_26_9: - xi[26] + z[1250] >= 0
 zxi_27_9: - xi[27] + z[1251] >= 0
 zxi_28_9: - xi[28] + z[1252] >= 0
 zxi_29_9: - xi[29] + z[1253] >= 0
 zxi_30_9: - xi[30] + z[1254] >= 0
 zxi_31_9: - xi[31] + z[1255] >= 0
 zxi_32_9: - xi[32] + z[1256] >= 0
 zxi_33_9: - xi[33] + z[1257] >= 0
 zxi_34_9: - xi[34] + z[1258] >= 0
 zxi_35_9: - xi[35] + z[1259] >= 0
 zxi_36_9: - xi[36] + z[1260] >= 0
 zxi_37_9: - xi[37] + z[1261] >= 0
 zxi_38_9: - xi[38] + z[1262] >= 0
 zxi_39_9: - xi[39] + z[1263] >= 0
 zxi_40_9: - xi[40] + z[1264] >= 0
 zxi_41_9: - xi[41] + z[1265] >= 0
 zxi_42_9: - xi[42] + z[1266] >= 0
 zxi_43_9: - xi[43] + z[1267] >= 0
 zxi_44_9: - xi[44] + z[1268] >= 0
 zxi_45_9: - xi[45] + z[1269] >= 0
 zxi_46_9: - xi[46] + z[1270] >= 0
 zxi_47_9: - xi[47] + z[1271] >= 0
 zxi_48_9: - xi[48] + z[1272] >= 0
 zxi_49_9: - xi[49] + z[1273] >= 0
 zxi_50_9: - xi[50] + z[1274] >= 0
 zxi_51_9: - xi[51] + z[1275] >= 0
 zxi_52_9: - xi[52] + z[1276] >= 0
 zxi_53_9: - xi[53] + z[1277] >= 0
 zxi_54_9: - xi[54] + z[1278] >= 0
 zxi_55_9: - xi[55] + z[1279] >= 0
 zxi_56_9: - xi[56] + z[1280] >= 0
 zxi_57_9: - xi[57] + z[1281] >= 0
 zxi_58_9: - xi[58] + z[1282] >= 0
 zxi_59_9: - xi[59] + z[1283] >= 0
 zxi_60_9: - xi[60] + z[1284] >= 0
 zxi_61_9: - xi[61] + z[1285] >= 0
 zxi_62_9: - xi[62] + z[1286] >= 0
 zxi_63_9: - xi[63] + z[1287] >= 0
 zxi_64_9: - xi[64] + z[1288] >= 0
 zxi_65_9: - xi[65] + z[1289] >= 0
 zxi_66_9: - xi[66] + z[1290] >= 0
 zxi_67_9: - xi[67] + z[1291] >= 0
 zxi_68_9: - xi[68] + z[1292] >= 0
 zxi_69_9: - xi[69] + z[1293] >= 0
 zxi_70_9: - xi[70] + z[1294] >= 0
 zxi_71_9: - xi[71] + z[1295] >= 0
 zxi_72_9: - xi[72] + z[1296] >= 0
 zxi_73_9: - xi[73] + z[1297] >= 0
 zxi_74_9: - xi[74] + z[1298] >= 0
 zxi_75_9: - xi[75] + z[1299] >= 0
 zxi_76_9: - xi[76] + z[1300] >= 0
 zxi_77_9: - xi[77] + z[1301] >= 0
 zxi_78_9: - xi[78] + z[1302] >= 0
 zxi_79_9: - xi[79] + z[1303] >= 0
 zxi_80_9: - xi[80] + z[1304] >= 0
 zxi_81_9: - xi[81] + z[1305] >= 0
 zxi_82_9: - xi[82] + z[1306] >= 0
 zxi_83_9: - xi[83] + z[1307] >= 0
 zxi_84_9: - xi[84] + z[1308] >= 0
 zxi_85_9: - xi[85] + z[1309] >= 0
 zxi_86_9: - xi[86] + z[1310] >= 0
 zxi_87_9: - xi[87] + z[1311] >= 0
 zxi_88_9: - xi[88] + z[1312] >= 0
 zxi_89_9: - xi[89] + z[1313] >= 0
 zxi_90_9: - xi[90] + z[1314] >= 0
 zxi_91_9: - xi[91] + z[1315] >= 0
 zxi_92_9: - xi[92] + z[1316] >= 0
 zxi_93_9: - xi[93] + z[1317] >= 0
 zxi_94_9: - xi[94] + z[1318] >= 0
 zxi_95_9: - xi[95] + z[1319] >= 0
 zxi_96_9: - xi[96] + z[1320] >= 0
 zxi_97_9: - xi[97] + z[1321] >= 0
 zxi_98_9: - xi[98] + z[1322] >= 0
 zxi_99_9: - xi[99] + z[1323] >= 0
 zxi_100_9: - xi[100] + z[1324] >= 0
 zxi_101_9: - xi[101] + z[1325] >= 0
 zxi_102_9: - xi[102] + z[1326] >= 0
 zxi_103_9: - xi[103] + z[1327] >= 0
 zxi_104_9: - xi[104] + z[1328] >= 0
 zxi_105_9: - xi[105] + z[1329] >= 0
 zxi_106_9: - xi[106] + z[1330] >= 0
 zxi_107_9: - xi[107] + z[1331] >= 0
 zxi_108_9: - xi[108] + z[1332] >= 0
 zxi_109_9: - xi[109] + z[1333] >= 0
 zxi_110_9: - xi[110] + z[1334] >= 0
 zxi_111_9: - xi[111] + z[1335] >= 0
 zxi_112_9: - xi[112] + z[1336] >= 0
 zxi_113_9: - xi[113] + z[1337] >= 0
 zxi_114_9: - xi[114] + z[1338] >= 0
 zxi_115_9: - xi[115] + z[1339] >= 0
 zxi_116_9: - xi[116] + z[1340] >= 0
 zxi_117_9: - xi[117] + z[1341] >= 0
 zxi_118_9: - xi[118] + z[1342] >= 0
 zxi_119_9: - xi[119] + z[1343] >= 0
 zxi_120_9: - xi[120] + z[1344] >= 0
 zxi_121_9: - xi[121] + z[1345] >= 0
 zxi_122_9: - xi[122] + z[1346] >= 0
 zxi_123_9: - xi[123] + z[1347] >= 0
 zxi_124_9: - xi[124] + z[1348] >= 0
 zxi_125_9: - xi[125] + z[1349] >= 0
 zxi_126_9: - xi[126] + z[1350] >= 0
 zxi_127_9: - xi[127] + z[1351] >= 0
 zxi_128_9: - xi[128] + z[1352] >= 0
 zxi_129_9: - xi[129] + z[1353] >= 0
 zxi_130_9: - xi[130] + z[1354] >= 0
 zxi_131_9: - xi[131] + z[1355] >= 0
 zxi_132_9: - xi[132] + z[1356] >= 0
 zxi_133_9: - xi[133] + z[1357] >= 0
 zxi_134_9: - xi[134] + z[1358] >= 0
 zxi_135_9: - xi[135] + z[1359] >= 0
 zxi_0_10: - xi[0] + z[1360] >= 0
 zxi_1_10: - xi[1] + z[1361] >= 0
 zxi_2_10: - xi[2] + z[1362] >= 0
 zxi_3_10: - xi[3] + z[1363] >= 0
 zxi_4_10: - xi[4] + z[1364] >= 0
 zxi_5_10: - xi[5] + z[1365] >= 0
 zxi_6_10: - xi[6] + z[1366] >= 0
 zxi_7_10: - xi[7] + z[1367] >= 0
 zxi_8_10: - xi[8] + z[1368] >= 0
 zxi_9_10: - xi[9] + z[1369] >= 0
 zxi_10_10: - xi[10] + z[1370] >= 0
 zxi_11_10: - xi[11] + z[1371] >= 0
 zxi_12_10: - xi[12] + z[1372] >= 0
 zxi_13_10: - xi[13] + z[1373] >= 0
 zxi_14_10: - xi[14] + z[1374] >= 0
 zxi_15_10: - xi[15] + z[1375] >= 0
 zxi_16_10: - xi[16] + z[1376] >= 0
 zxi_17_10: - xi[17] + z[1377] >= 0
 zxi_18_10: - xi[18] + z[1378] >= 0
 zxi_19_10: - xi[19] + z[1379] >= 0
 zxi_20_10: - xi[20] + z[1380] >= 0
 zxi_21_10: - xi[21] + z[1381] >= 0
 zxi_22_10: - xi[22] + z[1382] >= 0
 zxi_23_10: - xi[23] + z[1383] >= 0
 zxi_24_10: - xi[24] + z[1384] >= 0
 zxi_25_10: - xi[25] + z[1385] >= 0
 zxi_26_10: - xi[26] + z[1386] >= 0
 zxi_27_10: - xi[27] + z[1387] >= 0
 zxi_28_10: - xi[28] + z[1388] >= 0
 zxi_29_10: - xi[29] + z[1389] >= 0
 zxi_30_10: - xi[30] + z[1390] >= 0
 zxi_31_10: - xi[31] + z[1391] >= 0
 zxi_32_10: - xi[32] + z[1392] >= 0
 zxi_33_10: - xi[33] + z[1393] >= 0
 zxi_34_10: - xi[34] + z[1394] >= 0
 zxi_35_10: - xi[35] + z[1395] >= 0
 zxi_36_10: - xi[36] + z[1396] >= 0
 zxi_37_10: - xi[37] + z[1397] >= 0
 zxi_38_10: - xi[38] + z[1398] >= 0
 zxi_39_10: - xi[39] + z[1399] >= 0
 zxi_40_10: - xi[40] + z[1400] >= 0
 zxi_41_10: - xi[41] + z[1401] >= 0
 zxi_42_10: - xi[42] + z[1402] >= 0
 zxi_43_10: - xi[43] + z[1403] >= 0
 zxi_44_10: - xi[44] + z[1404] >= 0
 zxi_45_10: - xi[45] + z[1405] >= 0
 zxi_46_10: - xi[46] + z[1406] >= 0
 zxi_47_10: - xi[47] + z[1407] >= 0
 zxi_48_10: - xi[48] + z[1408] >= 0
 zxi_49_10: - xi[49] + z[1409] >= 0
 zxi_50_10: - xi[50] + z[1410] >= 0
 zxi_51_10: - xi[51] + z[1411] >= 0
 zxi_52_10: - xi[52] + z[1412] >= 0
 zxi_53_10: - xi[53] + z[1413] >= 0
 zxi_54_10: - xi[54] + z[1414] >= 0
 zxi_55_10: - xi[55] + z[1415] >= 0
 zxi_56_10: - xi[56] + z[1416] >= 0
 zxi_57_10: - xi[57] + z[1417] >= 0
 zxi_58_10: - xi[58] + z[1418] >= 0
 zxi_59_10: - xi[59] + z[1419] >= 0
 zxi_60_10: - xi[60] + z[1420] >= 0
 zxi_61_10: - xi[61] + z[1421] >= 0
 zxi_62_10: - xi[62] + z[1422] >= 0
 zxi_63_10: - xi[63] + z[1423] >= 0
 zxi_64_10: - xi[64] + z[1424] >= 0
 zxi_65_10: - xi[65] + z[1425] >= 0
 zxi_66_10: - xi[66] + z[1426] >= 0
 zxi_67_10: - xi[67] + z[1427] >= 0
 zxi_68_10: - xi[68] + z[1428] >= 0
 zxi_69_10: - xi[69] + z[1429] >= 0
 zxi_70_10: - xi[70] + z[1430] >= 0
 zxi_71_10: - xi[71] + z[1431] >= 0
 zxi_72_10: - xi[72] + z[1432] >= 0
 zxi_73_10: - xi[73] + z[1433] >= 0
 zxi_74_10: - xi[74] + z[1434] >= 0
 zxi_75_10: - xi[75] + z[1435] >= 0
 zxi_76_10: - xi[76] + z[1436] >= 0
 zxi_77_10: - xi[77] + z[1437] >= 0
 zxi_78_10: - xi[78] + z[1438] >= 0
 zxi_79_10: - xi[79] + z[1439] >= 0
 zxi_80_10: - xi[80] + z[1440] >= 0
 zxi_81_10: - xi[81] + z[1441] >= 0
 zxi_82_10: - xi[82] + z[1442] >= 0
 zxi_83_10: - xi[83] + z[1443] >= 0
 zxi_84_10: - xi[84] + z[1444] >= 0
 zxi_85_10: - xi[85] + z[1445] >= 0
 zxi_86_10: - xi[86] + z[1446] >= 0
 zxi_87_10: - xi[87] + z[1447] >= 0
 zxi_88_10: - xi[88] + z[1448] >= 0
 zxi_89_10: - xi[89] + z[1449] >= 0
 zxi_90_10: - xi[90] + z[1450] >= 0
 zxi_91_10: - xi[91] + z[1451] >= 0
 zxi_92_10: - xi[92] + z[1452] >= 0
 zxi_93_10: - xi[93] + z[1453] >= 0
 zxi_94_10: - xi[94] + z[1454] >= 0
 zxi_95_10: - xi[95] + z[1455] >= 0
 zxi_96_10: - xi[96] + z[1456] >= 0
 zxi_97_10: - xi[97] + z[1457] >= 0
 zxi_98_10: - xi[98] + z[1458] >= 0
 zxi_99_10: - xi[99] + z[1459] >= 0
 zxi_100_10: - xi[100] + z[1460] >= 0
 zxi_101_10: - xi[101] + z[1461] >= 0
 zxi_102_10: - xi[102] + z[1462] >= 0
 zxi_103_10: - xi[103] + z[1463] >= 0
 zxi_104_10: - xi[104] + z[1464] >= 0
 zxi_105_10: - xi[105] + z[1465] >= 0
 zxi_106_10: - xi[106] + z[1466] >= 0
 zxi_107_10: - xi[107] + z[1467] >= 0
 zxi_108_10: - xi[108] + z[1468] >= 0
 zxi_109_10: - xi[109] + z[1469] >= 0
 zxi_110_10: - xi[110] + z[1470] >= 0
 zxi_111_10: - xi[111] + z[1471] >= 0
 zxi_112_10: - xi[112] + z[1472] >= 0
 zxi_113_10: - xi[113] + z[1473] >= 0
 zxi_114_10: - xi[114] + z[1474] >= 0
 zxi_115_10: - xi[115] + z[1475] >= 0
 zxi_116_10: - xi[116] + z[1476] >= 0
 zxi_117_10: - xi[117] + z[1477] >= 0
 zxi_118_10: - xi[118] + z[1478] >= 0
 zxi_119_10: - xi[119] + z[1479] >= 0
 zxi_120_10: - xi[120] + z[1480] >= 0
 zxi_121_10: - xi[121] + z[1481] >= 0
 zxi_122_10: - xi[122] + z[1482] >= 0
 zxi_123_10: - xi[123] + z[1483] >= 0
 zxi_124_10: - xi[124] + z[1484] >= 0
 zxi_125_10: - xi[125] + z[1485] >= 0
 zxi_126_10: - xi[126] + z[1486] >= 0
 zxi_127_10: - xi[127] + z[1487] >= 0
 zxi_128_10: - xi[128] + z[1488] >= 0
 zxi_129_10: - xi[129] + z[1489] >= 0
 zxi_130_10: - xi[130] + z[1490] >= 0
 zxi_131_10: - xi[131] + z[1491] >= 0
 zxi_132_10: - xi[132] + z[1492] >= 0
 zxi_133_10: - xi[133] + z[1493] >= 0
 zxi_134_10: - xi[134] + z[1494] >= 0
 zxi_135_10: - xi[135] + z[1495] >= 0
 zxi_0_11: - xi[0] + z[1496] >= 0
 zxi_1_11: - xi[1] + z[1497] >= 0
 zxi_2_11: - xi[2] + z[1498] >= 0
 zxi_3_11: - xi[3] + z[1499] >= 0
 zxi_4_11: - xi[4] + z[1500] >= 0
 zxi_5_11: - xi[5] + z[1501] >= 0
 zxi_6_11: - xi[6] + z[1502] >= 0
 zxi_7_11: - xi[7] + z[1503] >= 0
 zxi_8_11: - xi[8] + z[1504] >= 0
 zxi_9_11: - xi[9] + z[1505] >= 0
 zxi_10_11: - xi[10] + z[1506] >= 0
 zxi_11_11: - xi[11] + z[1507] >= 0
 zxi_12_11: - xi[12] + z[1508] >= 0
 zxi_13_11: - xi[13] + z[1509] >= 0
 zxi_14_11: - xi[14] + z[1510] >= 0
 zxi_15_11: - xi[15] + z[1511] >= 0
 zxi_16_11: - xi[16] + z[1512] >= 0
 zxi_17_11: - xi[17] + z[1513] >= 0
 zxi_18_11: - xi[18] + z[1514] >= 0
 zxi_19_11: - xi[19] + z[1515] >= 0
 zxi_20_11: - xi[20] + z[1516] >= 0
 zxi_21_11: - xi[21] + z[1517] >= 0
 zxi_22_11: - xi[22] + z[1518] >= 0
 zxi_23_11: - xi[23] + z[1519] >= 0
 zxi_24_11: - xi[24] + z[1520] >= 0
 zxi_25_11: - xi[25] + z[1521] >= 0
 zxi_26_11: - xi[26] + z[1522] >= 0
 zxi_27_11: - xi[27] + z[1523] >= 0
 zxi_28_11: - xi[28] + z[1524] >= 0
 zxi_29_11: - xi[29] + z[1525] >= 0
 zxi_30_11: - xi[30] + z[1526] >= 0
 zxi_31_11: - xi[31] + z[1527] >= 0
 zxi_32_11: - xi[32] + z[1528] >= 0
 zxi_33_11: - xi[33] + z[1529] >= 0
 zxi_34_11: - xi[34] + z[1530] >= 0
 zxi_35_11: - xi[35] + z[1531] >= 0
 zxi_36_11: - xi[36] + z[1532] >= 0
 zxi_37_11: - xi[37] + z[1533] >= 0
 zxi_38_11: - xi[38] + z[1534] >= 0
 zxi_39_11: - xi[39] + z[1535] >= 0
 zxi_40_11: - xi[40] + z[1536] >= 0
 zxi_41_11: - xi[41] + z[1537] >= 0
 zxi_42_11: - xi[42] + z[1538] >= 0
 zxi_43_11: - xi[43] + z[1539] >= 0
 zxi_44_11: - xi[44] + z[1540] >= 0
 zxi_45_11: - xi[45] + z[1541] >= 0
 zxi_46_11: - xi[46] + z[1542] >= 0
 zxi_47_11: - xi[47] + z[1543] >= 0
 zxi_48_11: - xi[48] + z[1544] >= 0
 zxi_49_11: - xi[49] + z[1545] >= 0
 zxi_50_11: - xi[50] + z[1546] >= 0
 zxi_51_11: - xi[51] + z[1547] >= 0
 zxi_52_11: - xi[52] + z[1548] >= 0
 zxi_53_11: - xi[53] + z[1549] >= 0
 zxi_54_11: - xi[54] + z[1550] >= 0
 zxi_55_11: - xi[55] + z[1551] >= 0
 zxi_56_11: - xi[56] + z[1552] >= 0
 zxi_57_11: - xi[57] + z[1553] >= 0
 zxi_58_11: - xi[58] + z[1554] >= 0
 zxi_59_11: - xi[59] + z[1555] >= 0
 zxi_60_11: - xi[60] + z[1556] >= 0
 zxi_61_11: - xi[61] + z[1557] >= 0
 zxi_62_11: - xi[62] + z[1558] >= 0
 zxi_63_11: - xi[63] + z[1559] >= 0
 zxi_64_11: - xi[64] + z[1560] >= 0
 zxi_65_11: - xi[65] + z[1561] >= 0
 zxi_66_11: - xi[66] + z[1562] >= 0
 zxi_67_11: - xi[67] + z[1563] >= 0
 zxi_68_11: - xi[68] + z[1564] >= 0
 zxi_69_11: - xi[69] + z[1565] >= 0
 zxi_70_11: - xi[70] + z[1566] >= 0
 zxi_71_11: - xi[71] + z[1567] >= 0
 zxi_72_11: - xi[72] + z[1568] >= 0
 zxi_73_11: - xi[73] + z[1569] >= 0
 zxi_74_11: - xi[74] + z[1570] >= 0
 zxi_75_11: - xi[75] + z[1571] >= 0
 zxi_76_11: - xi[76] + z[1572] >= 0
 zxi_77_11: - xi[77] + z[1573] >= 0
 zxi_78_11: - xi[78] + z[1574] >= 0
 zxi_79_11: - xi[79] + z[1575] >= 0
 zxi_80_11: - xi[80] + z[1576] >= 0
 zxi_81_11: - xi[81] + z[1577] >= 0
 zxi_82_11: - xi[82] + z[1578] >= 0
 zxi_83_11: - xi[83] + z[1579] >= 0
 zxi_84_11: - xi[84] + z[1580] >= 0
 zxi_85_11: - xi[85] + z[1581] >= 0
 zxi_86_11: - xi[86] + z[1582] >= 0
 zxi_87_11: - xi[87] + z[1583] >= 0
 zxi_88_11: - xi[88] + z[1584] >= 0
 zxi_89_11: - xi[89] + z[1585] >= 0
 zxi_90_11: - xi[90] + z[1586] >= 0
 zxi_91_11: - xi[91] + z[1587] >= 0
 zxi_92_11: - xi[92] + z[1588] >= 0
 zxi_93_11: - xi[93] + z[1589] >= 0
 zxi_94_11: - xi[94] + z[1590] >= 0
 zxi_95_11: - xi[95] + z[1591] >= 0
 zxi_96_11: - xi[96] + z[1592] >= 0
 zxi_97_11: - xi[97] + z[1593] >= 0
 zxi_98_11: - xi[98] + z[1594] >= 0
 zxi_99_11: - xi[99] + z[1595] >= 0
 zxi_100_11: - xi[100] + z[1596] >= 0
 zxi_101_11: - xi[101] + z[1597] >= 0
 zxi_102_11: - xi[102] + z[1598] >= 0
 zxi_103_11: - xi[103] + z[1599] >= 0
 zxi_104_11: - xi[104] + z[1600] >= 0
 zxi_105_11: - xi[105] + z[1601] >= 0
 zxi_106_11: - xi[106] + z[1602] >= 0
 zxi_107_11: - xi[107] + z[1603] >= 0
 zxi_108_11: - xi[108] + z[1604] >= 0
 zxi_109_11: - xi[109] + z[1605] >= 0
 zxi_110_11: - xi[110] + z[1606] >= 0
 zxi_111_11: - xi[111] + z[1607] >= 0
 zxi_112_11: - xi[112] + z[1608] >= 0
 zxi_113_11: - xi[113] + z[1609] >= 0
 zxi_114_11: - xi[114] + z[1610] >= 0
 zxi_115_11: - xi[115] + z[1611] >= 0
 zxi_116_11: - xi[116] + z[1612] >= 0
 zxi_117_11: - xi[117] + z[1613] >= 0
 zxi_118_11: - xi[118] + z[1614] >= 0
 zxi_119_11: - xi[119] + z[1615] >= 0
 zxi_120_11: - xi[120] + z[1616] >= 0
 zxi_121_11: - xi[121] + z[1617] >= 0
 zxi_122_11: - xi[122] + z[1618] >= 0
 zxi_123_11: - xi[123] + z[1619] >= 0
 zxi_124_11: - xi[124] + z[1620] >= 0
 zxi_125_11: - xi[125] + z[1621] >= 0
 zxi_126_11: - xi[126] + z[1622] >= 0
 zxi_127_11: - xi[127] + z[1623] >= 0
 zxi_128_11: - xi[128] + z[1624] >= 0
 zxi_129_11: - xi[129] + z[1625] >= 0
 zxi_130_11: - xi[130] + z[1626] >= 0
 zxi_131_11: - xi[131] + z[1627] >= 0
 zxi_132_11: - xi[132] + z[1628] >= 0
 zxi_133_11: - xi[133] + z[1629] >= 0
 zxi_134_11: - xi[134] + z[1630] >= 0
 zxi_135_11: - xi[135] + z[1631] >= 0
 zxi_0_12: - xi[0] + z[1632] >= 0
 zxi_1_12: - xi[1] + z[1633] >= 0
 zxi_2_12: - xi[2] + z[1634] >= 0
 zxi_3_12: - xi[3] + z[1635] >= 0
 zxi_4_12: - xi[4] + z[1636] >= 0
 zxi_5_12: - xi[5] + z[1637] >= 0
 zxi_6_12: - xi[6] + z[1638] >= 0
 zxi_7_12: - xi[7] + z[1639] >= 0
 zxi_8_12: - xi[8] + z[1640] >= 0
 zxi_9_12: - xi[9] + z[1641] >= 0
 zxi_10_12: - xi[10] + z[1642] >= 0
 zxi_11_12: - xi[11] + z[1643] >= 0
 zxi_12_12: - xi[12] + z[1644] >= 0
 zxi_13_12: - xi[13] + z[1645] >= 0
 zxi_14_12: - xi[14] + z[1646] >= 0
 zxi_15_12: - xi[15] + z[1647] >= 0
 zxi_16_12: - xi[16] + z[1648] >= 0
 zxi_17_12: - xi[17] + z[1649] >= 0
 zxi_18_12: - xi[18] + z[1650] >= 0
 zxi_19_12: - xi[19] + z[1651] >= 0
 zxi_20_12: - xi[20] + z[1652] >= 0
 zxi_21_12: - xi[21] + z[1653] >= 0
 zxi_22_12: - xi[22] + z[1654] >= 0
 zxi_23_12: - xi[23] + z[1655] >= 0
 zxi_24_12: - xi[24] + z[1656] >= 0
 zxi_25_12: - xi[25] + z[1657] >= 0
 zxi_26_12: - xi[26] + z[1658] >= 0
 zxi_27_12: - xi[27] + z[1659] >= 0
 zxi_28_12: - xi[28] + z[1660] >= 0
 zxi_29_12: - xi[29] + z[1661] >= 0
 zxi_30_12: - xi[30] + z[1662] >= 0
 zxi_31_12: - xi[31] + z[1663] >= 0
 zxi_32_12: - xi[32] + z[1664] >= 0
 zxi_33_12: - xi[33] + z[1665] >= 0
 zxi_34_12: - xi[34] + z[1666] >= 0
 zxi_35_12: - xi[35] + z[1667] >= 0
 zxi_36_12: - xi[36] + z[1668] >= 0
 zxi_37_12: - xi[37] + z[1669] >= 0
 zxi_38_12: - xi[38] + z[1670] >= 0
 zxi_39_12: - xi[39] + z[1671] >= 0
 zxi_40_12: - xi[40] + z[1672] >= 0
 zxi_41_12: - xi[41] + z[1673] >= 0
 zxi_42_12: - xi[42] + z[1674] >= 0
 zxi_43_12: - xi[43] + z[1675] >= 0
 zxi_44_12: - xi[44] + z[1676] >= 0
 zxi_45_12: - xi[45] + z[1677] >= 0
 zxi_46_12: - xi[46] + z[1678] >= 0
 zxi_47_12: - xi[47] + z[1679] >= 0
 zxi_48_12: - xi[48] + z[1680] >= 0
 zxi_49_12: - xi[49] + z[1681] >= 0
 zxi_50_12: - xi[50] + z[1682] >= 0
 zxi_51_12: - xi[51] + z[1683] >= 0
 zxi_52_12: - xi[52] + z[1684] >= 0
 zxi_53_12: - xi[53] + z[1685] >= 0
 zxi_54_12: - xi[54] + z[1686] >= 0
 zxi_55_12: - xi[55] + z[1687] >= 0
 zxi_56_12: - xi[56] + z[1688] >= 0
 zxi_57_12: - xi[57] + z[1689] >= 0
 zxi_58_12: - xi[58] + z[1690] >= 0
 zxi_59_12: - xi[59] + z[1691] >= 0
 zxi_60_12: - xi[60] + z[1692] >= 0
 zxi_61_12: - xi[61] + z[1693] >= 0
 zxi_62_12: - xi[62] + z[1694] >= 0
 zxi_63_12: - xi[63] + z[1695] >= 0
 zxi_64_12: - xi[64] + z[1696] >= 0
 zxi_65_12: - xi[65] + z[1697] >= 0
 zxi_66_12: - xi[66] + z[1698] >= 0
 zxi_67_12: - xi[67] + z[1699] >= 0
 zxi_68_12: - xi[68] + z[1700] >= 0
 zxi_69_12: - xi[69] + z[1701] >= 0
 zxi_70_12: - xi[70] + z[1702] >= 0
 zxi_71_12: - xi[71] + z[1703] >= 0
 zxi_72_12: - xi[72] + z[1704] >= 0
 zxi_73_12: - xi[73] + z[1705] >= 0
 zxi_74_12: - xi[74] + z[1706] >= 0
 zxi_75_12: - xi[75] + z[1707] >= 0
 zxi_76_12: - xi[76] + z[1708] >= 0
 zxi_77_12: - xi[77] + z[1709] >= 0
 zxi_78_12: - xi[78] + z[1710] >= 0
 zxi_79_12: - xi[79] + z[1711] >= 0
 zxi_80_12: - xi[80] + z[1712] >= 0
 zxi_81_12: - xi[81] + z[1713] >= 0
 zxi_82_12: - xi[82] + z[1714] >= 0
 zxi_83_12: - xi[83] + z[1715] >= 0
 zxi_84_12: - xi[84] + z[1716] >= 0
 zxi_85_12: - xi[85] + z[1717] >= 0
 zxi_86_12: - xi[86] + z[1718] >= 0
 zxi_87_12: - xi[87] + z[1719] >= 0
 zxi_88_12: - xi[88] + z[1720] >= 0
 zxi_89_12: - xi[89] + z[1721] >= 0
 zxi_90_12: - xi[90] + z[1722] >= 0
 zxi_91_12: - xi[91] + z[1723] >= 0
 zxi_92_12: - xi[92] + z[1724] >= 0
 zxi_93_12: - xi[93] + z[1725] >= 0
 zxi_94_12: - xi[94] + z[1726] >= 0
 zxi_95_12: - xi[95] + z[1727] >= 0
 zxi_96_12: - xi[96] + z[1728] >= 0
 zxi_97_12: - xi[97] + z[1729] >= 0
 zxi_98_12: - xi[98] + z[1730] >= 0
 zxi_99_12: - xi[99] + z[1731] >= 0
 zxi_100_12: - xi[100] + z[1732] >= 0
 zxi_101_12: - xi[101] + z[1733] >= 0
 zxi_102_12: - xi[102] + z[1734] >= 0
 zxi_103_12: - xi[103] + z[1735] >= 0
 zxi_104_12: - xi[104] + z[1736] >= 0
 zxi_105_12: - xi[105] + z[1737] >= 0
 zxi_106_12: - xi[106] + z[1738] >= 0
 zxi_107_12: - xi[107] + z[1739] >= 0
 zxi_108_12: - xi[108] + z[1740] >= 0
 zxi_109_12: - xi[109] + z[1741] >= 0
 zxi_110_12: - xi[110] + z[1742] >= 0
 zxi_111_12: - xi[111] + z[1743] >= 0
 zxi_112_12: - xi[112] + z[1744] >= 0
 zxi_113_12: - xi[113] + z[1745] >= 0
 zxi_114_12: - xi[114] + z[1746] >= 0
 zxi_115_12: - xi[115] + z[1747] >= 0
 zxi_116_12: - xi[116] + z[1748] >= 0
 zxi_117_12: - xi[117] + z[1749] >= 0
 zxi_118_12: - xi[118] + z[1750] >= 0
 zxi_119_12: - xi[119] + z[1751] >= 0
 zxi_120_12: - xi[120] + z[1752] >= 0
 zxi_121_12: - xi[121] + z[1753] >= 0
 zxi_122_12: - xi[122] + z[1754] >= 0
 zxi_123_12: - xi[123] + z[1755] >= 0
 zxi_124_12: - xi[124] + z[1756] >= 0
 zxi_125_12: - xi[125] + z[1757] >= 0
 zxi_126_12: - xi[126] + z[1758] >= 0
 zxi_127_12: - xi[127] + z[1759] >= 0
 zxi_128_12: - xi[128] + z[1760] >= 0
 zxi_129_12: - xi[129] + z[1761] >= 0
 zxi_130_12: - xi[130] + z[1762] >= 0
 zxi_131_12: - xi[131] + z[1763] >= 0
 zxi_132_12: - xi[132] + z[1764] >= 0
 zxi_133_12: - xi[133] + z[1765] >= 0
 zxi_134_12: - xi[134] + z[1766] >= 0
 zxi_135_12: - xi[135] + z[1767] >= 0
 zxi_0_13: - xi[0] + z[1768] >= 0
 zxi_1_13: - xi[1] + z[1769] >= 0
 zxi_2_13: - xi[2] + z[1770] >= 0
 zxi_3_13: - xi[3] + z[1771] >= 0
 zxi_4_13: - xi[4] + z[1772] >= 0
 zxi_5_13: - xi[5] + z[1773] >= 0
 zxi_6_13: - xi[6] + z[1774] >= 0
 zxi_7_13: - xi[7] + z[1775] >= 0
 zxi_8_13: - xi[8] + z[1776] >= 0
 zxi_9_13: - xi[9] + z[1777] >= 0
 zxi_10_13: - xi[10] + z[1778] >= 0
 zxi_11_13: - xi[11] + z[1779] >= 0
 zxi_12_13: - xi[12] + z[1780] >= 0
 zxi_13_13: - xi[13] + z[1781] >= 0
 zxi_14_13: - xi[14] + z[1782] >= 0
 zxi_15_13: - xi[15] + z[1783] >= 0
 zxi_16_13: - xi[16] + z[1784] >= 0
 zxi_17_13: - xi[17] + z[1785] >= 0
 zxi_18_13: - xi[18] + z[1786] >= 0
 zxi_19_13: - xi[19] + z[1787] >= 0
 zxi_20_13: - xi[20] + z[1788] >= 0
 zxi_21_13: - xi[21] + z[1789] >= 0
 zxi_22_13: - xi[22] + z[1790] >= 0
 zxi_23_13: - xi[23] + z[1791] >= 0
 zxi_24_13: - xi[24] + z[1792] >= 0
 zxi_25_13: - xi[25] + z[1793] >= 0
 zxi_26_13: - xi[26] + z[1794] >= 0
 zxi_27_13: - xi[27] + z[1795] >= 0
 zxi_28_13: - xi[28] + z[1796] >= 0
 zxi_29_13: - xi[29] + z[1797] >= 0
 zxi_30_13: - xi[30] + z[1798] >= 0
 zxi_31_13: - xi[31] + z[1799] >= 0
 zxi_32_13: - xi[32] + z[1800] >= 0
 zxi_33_13: - xi[33] + z[1801] >= 0
 zxi_34_13: - xi[34] + z[1802] >= 0
 zxi_35_13: - xi[35] + z[1803] >= 0
 zxi_36_13: - xi[36] + z[1804] >= 0
 zxi_37_13: - xi[37] + z[1805] >= 0
 zxi_38_13: - xi[38] + z[1806] >= 0
 zxi_39_13: - xi[39] + z[1807] >= 0
 zxi_40_13: - xi[40] + z[1808] >= 0
 zxi_41_13: - xi[41] + z[1809] >= 0
 zxi_42_13: - xi[42] + z[1810] >= 0
 zxi_43_13: - xi[43] + z[1811] >= 0
 zxi_44_13: - xi[44] + z[1812] >= 0
 zxi_45_13: - xi[45] + z[1813] >= 0
 zxi_46_13: - xi[46] + z[1814] >= 0
 zxi_47_13: - xi[47] + z[1815] >= 0
 zxi_48_13: - xi[48] + z[1816] >= 0
 zxi_49_13: - xi[49] + z[1817] >= 0
 zxi_50_13: - xi[50] + z[1818] >= 0
 zxi_51_13: - xi[51] + z[1819] >= 0
 zxi_52_13: - xi[52] + z[1820] >= 0
 zxi_53_13: - xi[53] + z[1821] >= 0
 zxi_54_13: - xi[54] + z[1822] >= 0
 zxi_55_13: - xi[55] + z[1823] >= 0
 zxi_56_13: - xi[56] + z[1824] >= 0
 zxi_57_13: - xi[57] + z[1825] >= 0
 zxi_58_13: - xi[58] + z[1826] >= 0
 zxi_59_13: - xi[59] + z[1827] >= 0
 zxi_60_13: - xi[60] + z[1828] >= 0
 zxi_61_13: - xi[61] + z[1829] >= 0
 zxi_62_13: - xi[62] + z[1830] >= 0
 zxi_63_13: - xi[63] + z[1831] >= 0
 zxi_64_13: - xi[64] + z[1832] >= 0
 zxi_65_13: - xi[65] + z[1833] >= 0
 zxi_66_13: - xi[66] + z[1834] >= 0
 zxi_67_13: - xi[67] + z[1835] >= 0
 zxi_68_13: - xi[68] + z[1836] >= 0
 zxi_69_13: - xi[69] + z[1837] >= 0
 zxi_70_13: - xi[70] + z[1838] >= 0
 zxi_71_13: - xi[71] + z[1839] >= 0
 zxi_72_13: - xi[72] + z[1840] >= 0
 zxi_73_13: - xi[73] + z[1841] >= 0
 zxi_74_13: - xi[74] + z[1842] >= 0
 zxi_75_13: - xi[75] + z[1843] >= 0
 zxi_76_13: - xi[76] + z[1844] >= 0
 zxi_77_13: - xi[77] + z[1845] >= 0
 zxi_78_13: - xi[78] + z[1846] >= 0
 zxi_79_13: - xi[79] + z[1847] >= 0
 zxi_80_13: - xi[80] + z[1848] >= 0
 zxi_81_13: - xi[81] + z[1849] >= 0
 zxi_82_13: - xi[82] + z[1850] >= 0
 zxi_83_13: - xi[83] + z[1851] >= 0
 zxi_84_13: - xi[84] + z[1852] >= 0
 zxi_85_13: - xi[85] + z[1853] >= 0
 zxi_86_13: - xi[86] + z[1854] >= 0
 zxi_87_13: - xi[87] + z[1855] >= 0
 zxi_88_13: - xi[88] + z[1856] >= 0
 zxi_89_13: - xi[89] + z[1857] >= 0
 zxi_90_13: - xi[90] + z[1858] >= 0
 zxi_91_13: - xi[91] + z[1859] >= 0
 zxi_92_13: - xi[92] + z[1860] >= 0
 zxi_93_13: - xi[93] + z[1861] >= 0
 zxi_94_13: - xi[94] + z[1862] >= 0
 zxi_95_13: - xi[95] + z[1863] >= 0
 zxi_96_13: - xi[96] + z[1864] >= 0
 zxi_97_13: - xi[97] + z[1865] >= 0
 zxi_98_13: - xi[98] + z[1866] >= 0
 zxi_99_13: - xi[99] + z[1867] >= 0
 zxi_100_13: - xi[100] + z[1868] >= 0
 zxi_101_13: - xi[101] + z[1869] >= 0
 zxi_102_13: - xi[102] + z[1870] >= 0
 zxi_103_13: - xi[103] + z[1871] >= 0
 zxi_104_13: - xi[104] + z[1872] >= 0
 zxi_105_13: - xi[105] + z[1873] >= 0
 zxi_106_13: - xi[106] + z[1874] >= 0
 zxi_107_13: - xi[107] + z[1875] >= 0
 zxi_108_13: - xi[108] + z[1876] >= 0
 zxi_109_13: - xi[109] + z[1877] >= 0
 zxi_110_13: - xi[110] + z[1878] >= 0
 zxi_111_13: - xi[111] + z[1879] >= 0
 zxi_112_13: - xi[112] + z[1880] >= 0
 zxi_113_13: - xi[113] + z[1881] >= 0
 zxi_114_13: - xi[114] + z[1882] >= 0
 zxi_115_13: - xi[115] + z[1883] >= 0
 zxi_116_13: - xi[116] + z[1884] >= 0
 zxi_117_13: - xi[117] + z[1885] >= 0
 zxi_118_13: - xi[118] + z[1886] >= 0
 zxi_119_13: - xi[119] + z[1887] >= 0
 zxi_120_13: - xi[120] + z[1888] >= 0
 zxi_121_13: - xi[121] + z[1889] >= 0
 zxi_122_13: - xi[122] + z[1890] >= 0
 zxi_123_13: - xi[123] + z[1891] >= 0
 zxi_124_13: - xi[124] + z[1892] >= 0
 zxi_125_13: - xi[125] + z[1893] >= 0
 zxi_126_13: - xi[126] + z[1894] >= 0
 zxi_127_13: - xi[127] + z[1895] >= 0
 zxi_128_13: - xi[128] + z[1896] >= 0
 zxi_129_13: - xi[129] + z[1897] >= 0
 zxi_130_13: - xi[130] + z[1898] >= 0
 zxi_131_13: - xi[131] + z[1899] >= 0
 zxi_132_13: - xi[132] + z[1900] >= 0
 zxi_133_13: - xi[133] + z[1901] >= 0
 zxi_134_13: - xi[134] + z[1902] >= 0
 zxi_135_13: - xi[135] + z[1903] >= 0
 zxi_0_14: - xi[0] + z[1904] >= 0
 zxi_1_14: - xi[1] + z[1905] >= 0
 zxi_2_14: - xi[2] + z[1906] >= 0
 zxi_3_14: - xi[3] + z[1907] >= 0
 zxi_4_14: - xi[4] + z[1908] >= 0
 zxi_5_14: - xi[5] + z[1909] >= 0
 zxi_6_14: - xi[6] + z[1910] >= 0
 zxi_7_14: - xi[7] + z[1911] >= 0
 zxi_8_14: - xi[8] + z[1912] >= 0
 zxi_9_14: - xi[9] + z[1913] >= 0
 zxi_10_14: - xi[10] + z[1914] >= 0
 zxi_11_14: - xi[11] + z[1915] >= 0
 zxi_12_14: - xi[12] + z[1916] >= 0
 zxi_13_14: - xi[13] + z[1917] >= 0
 zxi_14_14: - xi[14] + z[1918] >= 0
 zxi_15_14: - xi[15] + z[1919] >= 0
 zxi_16_14: - xi[16] + z[1920] >= 0
 zxi_17_14: - xi[17] + z[1921] >= 0
 zxi_18_14: - xi[18] + z[1922] >= 0
 zxi_19_14: - xi[19] + z[1923] >= 0
 zxi_20_14: - xi[20] + z[1924] >= 0
 zxi_21_14: - xi[21] + z[1925] >= 0
 zxi_22_14: - xi[22] + z[1926] >= 0
 zxi_23_14: - xi[23] + z[1927] >= 0
 zxi_24_14: - xi[24] + z[1928] >= 0
 zxi_25_14: - xi[25] + z[1929] >= 0
 zxi_26_14: - xi[26] + z[1930] >= 0
 zxi_27_14: - xi[27] + z[1931] >= 0
 zxi_28_14: - xi[28] + z[1932] >= 0
 zxi_29_14: - xi[29] + z[1933] >= 0
 zxi_30_14: - xi[30] + z[1934] >= 0
 zxi_31_14: - xi[31] + z[1935] >= 0
 zxi_32_14: - xi[32] + z[1936] >= 0
 zxi_33_14: - xi[33] + z[1937] >= 0
 zxi_34_14: - xi[34] + z[1938] >= 0
 zxi_35_14: - xi[35] + z[1939] >= 0
 zxi_36_14: - xi[36] + z[1940] >= 0
 zxi_37_14: - xi[37] + z[1941] >= 0
 zxi_38_14: - xi[38] + z[1942] >= 0
 zxi_39_14: - xi[39] + z[1943] >= 0
 zxi_40_14: - xi[40] + z[1944] >= 0
 zxi_41_14: - xi[41] + z[1945] >= 0
 zxi_42_14: - xi[42] + z[1946] >= 0
 zxi_43_14: - xi[43] + z[1947] >= 0
 zxi_44_14: - xi[44] + z[1948] >= 0
 zxi_45_14: - xi[45] + z[1949] >= 0
 zxi_46_14: - xi[46] + z[1950] >= 0
 zxi_47_14: - xi[47] + z[1951] >= 0
 zxi_48_14: - xi[48] + z[1952] >= 0
 zxi_49_14: - xi[49] + z[1953] >= 0
 zxi_50_14: - xi[50] + z[1954] >= 0
 zxi_51_14: - xi[51] + z[1955] >= 0
 zxi_52_14: - xi[52] + z[1956] >= 0
 zxi_53_14: - xi[53] + z[1957] >= 0
 zxi_54_14: - xi[54] + z[1958] >= 0
 zxi_55_14: - xi[55] + z[1959] >= 0
 zxi_56_14: - xi[56] + z[1960] >= 0
 zxi_57_14: - xi[57] + z[1961] >= 0
 zxi_58_14: - xi[58] + z[1962] >= 0
 zxi_59_14: - xi[59] + z[1963] >= 0
 zxi_60_14: - xi[60] + z[1964] >= 0
 zxi_61_14: - xi[61] + z[1965] >= 0
 zxi_62_14: - xi[62] + z[1966] >= 0
 zxi_63_14: - xi[63] + z[1967] >= 0
 zxi_64_14: - xi[64] + z[1968] >= 0
 zxi_65_14: - xi[65] + z[1969] >= 0
 zxi_66_14: - xi[66] + z[1970] >= 0
 zxi_67_14: - xi[67] + z[1971] >= 0
 zxi_68_14: - xi[68] + z[1972] >= 0
 zxi_69_14: - xi[69] + z[1973] >= 0
 zxi_70_14: - xi[70] + z[1974] >= 0
 zxi_71_14: - xi[71] + z[1975] >= 0
 zxi_72_14: - xi[72] + z[1976] >= 0
 zxi_73_14: - xi[73] + z[1977] >= 0
 zxi_74_14: - xi[74] + z[1978] >= 0
 zxi_75_14: - xi[75] + z[1979] >= 0
 zxi_76_14: - xi[76] + z[1980] >= 0
 zxi_77_14: - xi[77] + z[1981] >= 0
 zxi_78_14: - xi[78] + z[1982] >= 0
 zxi_79_14: - xi[79] + z[1983] >= 0
 zxi_80_14: - xi[80] + z[1984] >= 0
 zxi_81_14: - xi[81] + z[1985] >= 0
 zxi_82_14: - xi[82] + z[1986] >= 0
 zxi_83_14: - xi[83] + z[1987] >= 0
 zxi_84_14: - xi[84] + z[1988] >= 0
 zxi_85_14: - xi[85] + z[1989] >= 0
 zxi_86_14: - xi[86] + z[1990] >= 0
 zxi_87_14: - xi[87] + z[1991] >= 0
 zxi_88_14: - xi[88] + z[1992] >= 0
 zxi_89_14: - xi[89] + z[1993] >= 0
 zxi_90_14: - xi[90] + z[1994] >= 0
 zxi_91_14: - xi[91] + z[1995] >= 0
 zxi_92_14: - xi[92] + z[1996] >= 0
 zxi_93_14: - xi[93] + z[1997] >= 0
 zxi_94_14: - xi[94] + z[1998] >= 0
 zxi_95_14: - xi[95] + z[1999] >= 0
 zxi_96_14: - xi[96] + z[2000] >= 0
 zxi_97_14: - xi[97] + z[2001] >= 0
 zxi_98_14: - xi[98] + z[2002] >= 0
 zxi_99_14: - xi[99] + z[2003] >= 0
 zxi_100_14: - xi[100] + z[2004] >= 0
 zxi_101_14: - xi[101] + z[2005] >= 0
 zxi_102_14: - xi[102] + z[2006] >= 0
 zxi_103_14: - xi[103] + z[2007] >= 0
 zxi_104_14: - xi[104] + z[2008] >= 0
 zxi_105_14: - xi[105] + z[2009] >= 0
 zxi_106_14: - xi[106] + z[2010] >= 0
 zxi_107_14: - xi[107] + z[2011] >= 0
 zxi_108_14: - xi[108] + z[2012] >= 0
 zxi_109_14: - xi[109] + z[2013] >= 0
 zxi_110_14: - xi[110] + z[2014] >= 0
 zxi_111_14: - xi[111] + z[2015] >= 0
 zxi_112_14: - xi[112] + z[2016] >= 0
 zxi_113_14: - xi[113] + z[2017] >= 0
 zxi_114_14: - xi[114] + z[2018] >= 0
 zxi_115_14: - xi[115] + z[2019] >= 0
 zxi_116_14: - xi[116] + z[2020] >= 0
 zxi_117_14: - xi[117] + z[2021] >= 0
 zxi_118_14: - xi[118] + z[2022] >= 0
 zxi_119_14: - xi[119] + z[2023] >= 0
 zxi_120_14: - xi[120] + z[2024] >= 0
 zxi_121_14: - xi[121] + z[2025] >= 0
 zxi_122_14: - xi[122] + z[2026] >= 0
 zxi_123_14: - xi[123] + z[2027] >= 0
 zxi_124_14: - xi[124] + z[2028] >= 0
 zxi_125_14: - xi[125] + z[2029] >= 0
 zxi_126_14: - xi[126] + z[2030] >= 0
 zxi_127_14: - xi[127] + z[2031] >= 0
 zxi_128_14: - xi[128] + z[2032] >= 0
 zxi_129_14: - xi[129] + z[2033] >= 0
 zxi_130_14: - xi[130] + z[2034] >= 0
 zxi_131_14: - xi[131] + z[2035] >= 0
 zxi_132_14: - xi[132] + z[2036] >= 0
 zxi_133_14: - xi[133] + z[2037] >= 0
 zxi_134_14: - xi[134] + z[2038] >= 0
 zxi_135_14: - xi[135] + z[2039] >= 0
 zxi_0_15: - xi[0] + z[2040] >= 0
 zxi_1_15: - xi[1] + z[2041] >= 0
 zxi_2_15: - xi[2] + z[2042] >= 0
 zxi_3_15: - xi[3] + z[2043] >= 0
 zxi_4_15: - xi[4] + z[2044] >= 0
 zxi_5_15: - xi[5] + z[2045] >= 0
 zxi_6_15: - xi[6] + z[2046] >= 0
 zxi_7_15: - xi[7] + z[2047] >= 0
 zxi_8_15: - xi[8] + z[2048] >= 0
 zxi_9_15: - xi[9] + z[2049] >= 0
 zxi_10_15: - xi[10] + z[2050] >= 0
 zxi_11_15: - xi[11] + z[2051] >= 0
 zxi_12_15: - xi[12] + z[2052] >= 0
 zxi_13_15: - xi[13] + z[2053] >= 0
 zxi_14_15: - xi[14] + z[2054] >= 0
 zxi_15_15: - xi[15] + z[2055] >= 0
 zxi_16_15: - xi[16] + z[2056] >= 0
 zxi_17_15: - xi[17] + z[2057] >= 0
 zxi_18_15: - xi[18] + z[2058] >= 0
 zxi_19_15: - xi[19] + z[2059] >= 0
 zxi_20_15: - xi[20] + z[2060] >= 0
 zxi_21_15: - xi[21] + z[2061] >= 0
 zxi_22_15: - xi[22] + z[2062] >= 0
 zxi_23_15: - xi[23] + z[2063] >= 0
 zxi_24_15: - xi[24] + z[2064] >= 0
 zxi_25_15: - xi[25] + z[2065] >= 0
 zxi_26_15: - xi[26] + z[2066] >= 0
 zxi_27_15: - xi[27] + z[2067] >= 0
 zxi_28_15: - xi[28] + z[2068] >= 0
 zxi_29_15: - xi[29] + z[2069] >= 0
 zxi_30_15: - xi[30] + z[2070] >= 0
 zxi_31_15: - xi[31] + z[2071] >= 0
 zxi_32_15: - xi[32] + z[2072] >= 0
 zxi_33_15: - xi[33] + z[2073] >= 0
 zxi_34_15: - xi[34] + z[2074] >= 0
 zxi_35_15: - xi[35] + z[2075] >= 0
 zxi_36_15: - xi[36] + z[2076] >= 0
 zxi_37_15: - xi[37] + z[2077] >= 0
 zxi_38_15: - xi[38] + z[2078] >= 0
 zxi_39_15: - xi[39] + z[2079] >= 0
 zxi_40_15: - xi[40] + z[2080] >= 0
 zxi_41_15: - xi[41] + z[2081] >= 0
 zxi_42_15: - xi[42] + z[2082] >= 0
 zxi_43_15: - xi[43] + z[2083] >= 0
 zxi_44_15: - xi[44] + z[2084] >= 0
 zxi_45_15: - xi[45] + z[2085] >= 0
 zxi_46_15: - xi[46] + z[2086] >= 0
 zxi_47_15: - xi[47] + z[2087] >= 0
 zxi_48_15: - xi[48] + z[2088] >= 0
 zxi_49_15: - xi[49] + z[2089] >= 0
 zxi_50_15: - xi[50] + z[2090] >= 0
 zxi_51_15: - xi[51] + z[2091] >= 0
 zxi_52_15: - xi[52] + z[2092] >= 0
 zxi_53_15: - xi[53] + z[2093] >= 0
 zxi_54_15: - xi[54] + z[2094] >= 0
 zxi_55_15: - xi[55] + z[2095] >= 0
 zxi_56_15: - xi[56] + z[2096] >= 0
 zxi_57_15: - xi[57] + z[2097] >= 0
 zxi_58_15: - xi[58] + z[2098] >= 0
 zxi_59_15: - xi[59] + z[2099] >= 0
 zxi_60_15: - xi[60] + z[2100] >= 0
 zxi_61_15: - xi[61] + z[2101] >= 0
 zxi_62_15: - xi[62] + z[2102] >= 0
 zxi_63_15: - xi[63] + z[2103] >= 0
 zxi_64_15: - xi[64] + z[2104] >= 0
 zxi_65_15: - xi[65] + z[2105] >= 0
 zxi_66_15: - xi[66] + z[2106] >= 0
 zxi_67_15: - xi[67] + z[2107] >= 0
 zxi_68_15: - xi[68] + z[2108] >= 0
 zxi_69_15: - xi[69] + z[2109] >= 0
 zxi_70_15: - xi[70] + z[2110] >= 0
 zxi_71_15: - xi[71] + z[2111] >= 0
 zxi_72_15: - xi[72] + z[2112] >= 0
 zxi_73_15: - xi[73] + z[2113] >= 0
 zxi_74_15: - xi[74] + z[2114] >= 0
 zxi_75_15: - xi[75] + z[2115] >= 0
 zxi_76_15: - xi[76] + z[2116] >= 0
 zxi_77_15: - xi[77] + z[2117] >= 0
 zxi_78_15: - xi[78] + z[2118] >= 0
 zxi_79_15: - xi[79] + z[2119] >= 0
 zxi_80_15: - xi[80] + z[2120] >= 0
 zxi_81_15: - xi[81] + z[2121] >= 0
 zxi_82_15: - xi[82] + z[2122] >= 0
 zxi_83_15: - xi[83] + z[2123] >= 0
 zxi_84_15: - xi[84] + z[2124] >= 0
 zxi_85_15: - xi[85] + z[2125] >= 0
 zxi_86_15: - xi[86] + z[2126] >= 0
 zxi_87_15: - xi[87] + z[2127] >= 0
 zxi_88_15: - xi[88] + z[2128] >= 0
 zxi_89_15: - xi[89] + z[2129] >= 0
 zxi_90_15: - xi[90] + z[2130] >= 0
 zxi_91_15: - xi[91] + z[2131] >= 0
 zxi_92_15: - xi[92] + z[2132] >= 0
 zxi_93_15: - xi[93] + z[2133] >= 0
 zxi_94_15: - xi[94] + z[2134] >= 0
 zxi_95_15: - xi[95] + z[2135] >= 0
 zxi_96_15: - xi[96] + z[2136] >= 0
 zxi_97_15: - xi[97] + z[2137] >= 0
 zxi_98_15: - xi[98] + z[2138] >= 0
 zxi_99_15: - xi[99] + z[2139] >= 0
 zxi_100_15: - xi[100] + z[2140] >= 0
 zxi_101_15: - xi[101] + z[2141] >= 0
 zxi_102_15: - xi[102] + z[2142] >= 0
 zxi_103_15: - xi[103] + z[2143] >= 0
 zxi_104_15: - xi[104] + z[2144] >= 0
 zxi_105_15: - xi[105] + z[2145] >= 0
 zxi_106_15: - xi[106] + z[2146] >= 0
 zxi_107_15: - xi[107] + z[2147] >= 0
 zxi_108_15: - xi[108] + z[2148] >= 0
 zxi_109_15: - xi[109] + z[2149] >= 0
 zxi_110_15: - xi[110] + z[2150] >= 0
 zxi_111_15: - xi[111] + z[2151] >= 0
 zxi_112_15: - xi[112] + z[2152] >= 0
 zxi_113_15: - xi[113] + z[2153] >= 0
 zxi_114_15: - xi[114] + z[2154] >= 0
 zxi_115_15: - xi[115] + z[2155] >= 0
 zxi_116_15: - xi[116] + z[2156] >= 0
 zxi_117_15: - xi[117] + z[2157] >= 0
 zxi_118_15: - xi[118] + z[2158] >= 0
 zxi_119_15: - xi[119] + z[2159] >= 0
 zxi_120_15: - xi[120] + z[2160] >= 0
 zxi_121_15: - xi[121] + z[2161] >= 0
 zxi_122_15: - xi[122] + z[2162] >= 0
 zxi_123_15: - xi[123] + z[2163] >= 0
 zxi_124_15: - xi[124] + z[2164] >= 0
 zxi_125_15: - xi[125] + z[2165] >= 0
 zxi_126_15: - xi[126] + z[2166] >= 0
 zxi_127_15: - xi[127] + z[2167] >= 0
 zxi_128_15: - xi[128] + z[2168] >= 0
 zxi_129_15: - xi[129] + z[2169] >= 0
 zxi_130_15: - xi[130] + z[2170] >= 0
 zxi_131_15: - xi[131] + z[2171] >= 0
 zxi_132_15: - xi[132] + z[2172] >= 0
 zxi_133_15: - xi[133] + z[2173] >= 0
 zxi_134_15: - xi[134] + z[2174] >= 0
 zxi_135_15: - xi[135] + z[2175] >= 0
 zxi_0_16: - xi[0] + z[2176] >= 0
 zxi_1_16: - xi[1] + z[2177] >= 0
 zxi_2_16: - xi[2] + z[2178] >= 0
 zxi_3_16: - xi[3] + z[2179] >= 0
 zxi_4_16: - xi[4] + z[2180] >= 0
 zxi_5_16: - xi[5] + z[2181] >= 0
 zxi_6_16: - xi[6] + z[2182] >= 0
 zxi_7_16: - xi[7] + z[2183] >= 0
 zxi_8_16: - xi[8] + z[2184] >= 0
 zxi_9_16: - xi[9] + z[2185] >= 0
 zxi_10_16: - xi[10] + z[2186] >= 0
 zxi_11_16: - xi[11] + z[2187] >= 0
 zxi_12_16: - xi[12] + z[2188] >= 0
 zxi_13_16: - xi[13] + z[2189] >= 0
 zxi_14_16: - xi[14] + z[2190] >= 0
 zxi_15_16: - xi[15] + z[2191] >= 0
 zxi_16_16: - xi[16] + z[2192] >= 0
 zxi_17_16: - xi[17] + z[2193] >= 0
 zxi_18_16: - xi[18] + z[2194] >= 0
 zxi_19_16: - xi[19] + z[2195] >= 0
 zxi_20_16: - xi[20] + z[2196] >= 0
 zxi_21_16: - xi[21] + z[2197] >= 0
 zxi_22_16: - xi[22] + z[2198] >= 0
 zxi_23_16: - xi[23] + z[2199] >= 0
 zxi_24_16: - xi[24] + z[2200] >= 0
 zxi_25_16: - xi[25] + z[2201] >= 0
 zxi_26_16: - xi[26] + z[2202] >= 0
 zxi_27_16: - xi[27] + z[2203] >= 0
 zxi_28_16: - xi[28] + z[2204] >= 0
 zxi_29_16: - xi[29] + z[2205] >= 0
 zxi_30_16: - xi[30] + z[2206] >= 0
 zxi_31_16: - xi[31] + z[2207] >= 0
 zxi_32_16: - xi[32] + z[2208] >= 0
 zxi_33_16: - xi[33] + z[2209] >= 0
 zxi_34_16: - xi[34] + z[2210] >= 0
 zxi_35_16: - xi[35] + z[2211] >= 0
 zxi_36_16: - xi[36] + z[2212] >= 0
 zxi_37_16: - xi[37] + z[2213] >= 0
 zxi_38_16: - xi[38] + z[2214] >= 0
 zxi_39_16: - xi[39] + z[2215] >= 0
 zxi_40_16: - xi[40] + z[2216] >= 0
 zxi_41_16: - xi[41] + z[2217] >= 0
 zxi_42_16: - xi[42] + z[2218] >= 0
 zxi_43_16: - xi[43] + z[2219] >= 0
 zxi_44_16: - xi[44] + z[2220] >= 0
 zxi_45_16: - xi[45] + z[2221] >= 0
 zxi_46_16: - xi[46] + z[2222] >= 0
 zxi_47_16: - xi[47] + z[2223] >= 0
 zxi_48_16: - xi[48] + z[2224] >= 0
 zxi_49_16: - xi[49] + z[2225] >= 0
 zxi_50_16: - xi[50] + z[2226] >= 0
 zxi_51_16: - xi[51] + z[2227] >= 0
 zxi_52_16: - xi[52] + z[2228] >= 0
 zxi_53_16: - xi[53] + z[2229] >= 0
 zxi_54_16: - xi[54] + z[2230] >= 0
 zxi_55_16: - xi[55] + z[2231] >= 0
 zxi_56_16: - xi[56] + z[2232] >= 0
 zxi_57_16: - xi[57] + z[2233] >= 0
 zxi_58_16: - xi[58] + z[2234] >= 0
 zxi_59_16: - xi[59] + z[2235] >= 0
 zxi_60_16: - xi[60] + z[2236] >= 0
 zxi_61_16: - xi[61] + z[2237] >= 0
 zxi_62_16: - xi[62] + z[2238] >= 0
 zxi_63_16: - xi[63] + z[2239] >= 0
 zxi_64_16: - xi[64] + z[2240] >= 0
 zxi_65_16: - xi[65] + z[2241] >= 0
 zxi_66_16: - xi[66] + z[2242] >= 0
 zxi_67_16: - xi[67] + z[2243] >= 0
 zxi_68_16: - xi[68] + z[2244] >= 0
 zxi_69_16: - xi[69] + z[2245] >= 0
 zxi_70_16: - xi[70] + z[2246] >= 0
 zxi_71_16: - xi[71] + z[2247] >= 0
 zxi_72_16: - xi[72] + z[2248] >= 0
 zxi_73_16: - xi[73] + z[2249] >= 0
 zxi_74_16: - xi[74] + z[2250] >= 0
 zxi_75_16: - xi[75] + z[2251] >= 0
 zxi_76_16: - xi[76] + z[2252] >= 0
 zxi_77_16: - xi[77] + z[2253] >= 0
 zxi_78_16: - xi[78] + z[2254] >= 0
 zxi_79_16: - xi[79] + z[2255] >= 0
 zxi_80_16: - xi[80] + z[2256] >= 0
 zxi_81_16: - xi[81] + z[2257] >= 0
 zxi_82_16: - xi[82] + z[2258] >= 0
 zxi_83_16: - xi[83] + z[2259] >= 0
 zxi_84_16: - xi[84] + z[2260] >= 0
 zxi_85_16: - xi[85] + z[2261] >= 0
 zxi_86_16: - xi[86] + z[2262] >= 0
 zxi_87_16: - xi[87] + z[2263] >= 0
 zxi_88_16: - xi[88] + z[2264] >= 0
 zxi_89_16: - xi[89] + z[2265] >= 0
 zxi_90_16: - xi[90] + z[2266] >= 0
 zxi_91_16: - xi[91] + z[2267] >= 0
 zxi_92_16: - xi[92] + z[2268] >= 0
 zxi_93_16: - xi[93] + z[2269] >= 0
 zxi_94_16: - xi[94] + z[2270] >= 0
 zxi_95_16: - xi[95] + z[2271] >= 0
 zxi_96_16: - xi[96] + z[2272] >= 0
 zxi_97_16: - xi[97] + z[2273] >= 0
 zxi_98_16: - xi[98] + z[2274] >= 0
 zxi_99_16: - xi[99] + z[2275] >= 0
 zxi_100_16: - xi[100] + z[2276] >= 0
 zxi_101_16: - xi[101] + z[2277] >= 0
 zxi_102_16: - xi[102] + z[2278] >= 0
 zxi_103_16: - xi[103] + z[2279] >= 0
 zxi_104_16: - xi[104] + z[2280] >= 0
 zxi_105_16: - xi[105] + z[2281] >= 0
 zxi_106_16: - xi[106] + z[2282] >= 0
 zxi_107_16: - xi[107] + z[2283] >= 0
 zxi_108_16: - xi[108] + z[2284] >= 0
 zxi_109_16: - xi[109] + z[2285] >= 0
 zxi_110_16: - xi[110] + z[2286] >= 0
 zxi_111_16: - xi[111] + z[2287] >= 0
 zxi_112_16: - xi[112] + z[2288] >= 0
 zxi_113_16: - xi[113] + z[2289] >= 0
 zxi_114_16: - xi[114] + z[2290] >= 0
 zxi_115_16: - xi[115] + z[2291] >= 0
 zxi_116_16: - xi[116] + z[2292] >= 0
 zxi_117_16: - xi[117] + z[2293] >= 0
 zxi_118_16: - xi[118] + z[2294] >= 0
 zxi_119_16: - xi[119] + z[2295] >= 0
 zxi_120_16: - xi[120] + z[2296] >= 0
 zxi_121_16: - xi[121] + z[2297] >= 0
 zxi_122_16: - xi[122] + z[2298] >= 0
 zxi_123_16: - xi[123] + z[2299] >= 0
 zxi_124_16: - xi[124] + z[2300] >= 0
 zxi_125_16: - xi[125] + z[2301] >= 0
 zxi_126_16: - xi[126] + z[2302] >= 0
 zxi_127_16: - xi[127] + z[2303] >= 0
 zxi_128_16: - xi[128] + z[2304] >= 0
 zxi_129_16: - xi[129] + z[2305] >= 0
 zxi_130_16: - xi[130] + z[2306] >= 0
 zxi_131_16: - xi[131] + z[2307] >= 0
 zxi_132_16: - xi[132] + z[2308] >= 0
 zxi_133_16: - xi[133] + z[2309] >= 0
 zxi_134_16: - xi[134] + z[2310] >= 0
 zxi_135_16: - xi[135] + z[2311] >= 0
 zxi_0_17: - xi[0] + z[2312] >= 0
 zxi_1_17: - xi[1] + z[2313] >= 0
 zxi_2_17: - xi[2] + z[2314] >= 0
 zxi_3_17: - xi[3] + z[2315] >= 0
 zxi_4_17: - xi[4] + z[2316] >= 0
 zxi_5_17: - xi[5] + z[2317] >= 0
 zxi_6_17: - xi[6] + z[2318] >= 0
 zxi_7_17: - xi[7] + z[2319] >= 0
 zxi_8_17: - xi[8] + z[2320] >= 0
 zxi_9_17: - xi[9] + z[2321] >= 0
 zxi_10_17: - xi[10] + z[2322] >= 0
 zxi_11_17: - xi[11] + z[2323] >= 0
 zxi_12_17: - xi[12] + z[2324] >= 0
 zxi_13_17: - xi[13] + z[2325] >= 0
 zxi_14_17: - xi[14] + z[2326] >= 0
 zxi_15_17: - xi[15] + z[2327] >= 0
 zxi_16_17: - xi[16] + z[2328] >= 0
 zxi_17_17: - xi[17] + z[2329] >= 0
 zxi_18_17: - xi[18] + z[2330] >= 0
 zxi_19_17: - xi[19] + z[2331] >= 0
 zxi_20_17: - xi[20] + z[2332] >= 0
 zxi_21_17: - xi[21] + z[2333] >= 0
 zxi_22_17: - xi[22] + z[2334] >= 0
 zxi_23_17: - xi[23] + z[2335] >= 0
 zxi_24_17: - xi[24] + z[2336] >= 0
 zxi_25_17: - xi[25] + z[2337] >= 0
 zxi_26_17: - xi[26] + z[2338] >= 0
 zxi_27_17: - xi[27] + z[2339] >= 0
 zxi_28_17: - xi[28] + z[2340] >= 0
 zxi_29_17: - xi[29] + z[2341] >= 0
 zxi_30_17: - xi[30] + z[2342] >= 0
 zxi_31_17: - xi[31] + z[2343] >= 0
 zxi_32_17: - xi[32] + z[2344] >= 0
 zxi_33_17: - xi[33] + z[2345] >= 0
 zxi_34_17: - xi[34] + z[2346] >= 0
 zxi_35_17: - xi[35] + z[2347] >= 0
 zxi_36_17: - xi[36] + z[2348] >= 0
 zxi_37_17: - xi[37] + z[2349] >= 0
 zxi_38_17: - xi[38] + z[2350] >= 0
 zxi_39_17: - xi[39] + z[2351] >= 0
 zxi_40_17: - xi[40] + z[2352] >= 0
 zxi_41_17: - xi[41] + z[2353] >= 0
 zxi_42_17: - xi[42] + z[2354] >= 0
 zxi_43_17: - xi[43] + z[2355] >= 0
 zxi_44_17: - xi[44] + z[2356] >= 0
 zxi_45_17: - xi[45] + z[2357] >= 0
 zxi_46_17: - xi[46] + z[2358] >= 0
 zxi_47_17: - xi[47] + z[2359] >= 0
 zxi_48_17: - xi[48] + z[2360] >= 0
 zxi_49_17: - xi[49] + z[2361] >= 0
 zxi_50_17: - xi[50] + z[2362] >= 0
 zxi_51_17: - xi[51] + z[2363] >= 0
 zxi_52_17: - xi[52] + z[2364] >= 0
 zxi_53_17: - xi[53] + z[2365] >= 0
 zxi_54_17: - xi[54] + z[2366] >= 0
 zxi_55_17: - xi[55] + z[2367] >= 0
 zxi_56_17: - xi[56] + z[2368] >= 0
 zxi_57_17: - xi[57] + z[2369] >= 0
 zxi_58_17: - xi[58] + z[2370] >= 0
 zxi_59_17: - xi[59] + z[2371] >= 0
 zxi_60_17: - xi[60] + z[2372] >= 0
 zxi_61_17: - xi[61] + z[2373] >= 0
 zxi_62_17: - xi[62] + z[2374] >= 0
 zxi_63_17: - xi[63] + z[2375] >= 0
 zxi_64_17: - xi[64] + z[2376] >= 0
 zxi_65_17: - xi[65] + z[2377] >= 0
 zxi_66_17: - xi[66] + z[2378] >= 0
 zxi_67_17: - xi[67] + z[2379] >= 0
 zxi_68_17: - xi[68] + z[2380] >= 0
 zxi_69_17: - xi[69] + z[2381] >= 0
 zxi_70_17: - xi[70] + z[2382] >= 0
 zxi_71_17: - xi[71] + z[2383] >= 0
 zxi_72_17: - xi[72] + z[2384] >= 0
 zxi_73_17: - xi[73] + z[2385] >= 0
 zxi_74_17: - xi[74] + z[2386] >= 0
 zxi_75_17: - xi[75] + z[2387] >= 0
 zxi_76_17: - xi[76] + z[2388] >= 0
 zxi_77_17: - xi[77] + z[2389] >= 0
 zxi_78_17: - xi[78] + z[2390] >= 0
 zxi_79_17: - xi[79] + z[2391] >= 0
 zxi_80_17: - xi[80] + z[2392] >= 0
 zxi_81_17: - xi[81] + z[2393] >= 0
 zxi_82_17: - xi[82] + z[2394] >= 0
 zxi_83_17: - xi[83] + z[2395] >= 0
 zxi_84_17: - xi[84] + z[2396] >= 0
 zxi_85_17: - xi[85] + z[2397] >= 0
 zxi_86_17: - xi[86] + z[2398] >= 0
 zxi_87_17: - xi[87] + z[2399] >= 0
 zxi_88_17: - xi[88] + z[2400] >= 0
 zxi_89_17: - xi[89] + z[2401] >= 0
 zxi_90_17: - xi[90] + z[2402] >= 0
 zxi_91_17: - xi[91] + z[2403] >= 0
 zxi_92_17: - xi[92] + z[2404] >= 0
 zxi_93_17: - xi[93] + z[2405] >= 0
 zxi_94_17: - xi[94] + z[2406] >= 0
 zxi_95_17: - xi[95] + z[2407] >= 0
 zxi_96_17: - xi[96] + z[2408] >= 0
 zxi_97_17: - xi[97] + z[2409] >= 0
 zxi_98_17: - xi[98] + z[2410] >= 0
 zxi_99_17: - xi[99] + z[2411] >= 0
 zxi_100_17: - xi[100] + z[2412] >= 0
 zxi_101_17: - xi[101] + z[2413] >= 0
 zxi_102_17: - xi[102] + z[2414] >= 0
 zxi_103_17: - xi[103] + z[2415] >= 0
 zxi_104_17: - xi[104] + z[2416] >= 0
 zxi_105_17: - xi[105] + z[2417] >= 0
 zxi_106_17: - xi[106] + z[2418] >= 0
 zxi_107_17: - xi[107] + z[2419] >= 0
 zxi_108_17: - xi[108] + z[2420] >= 0
 zxi_109_17: - xi[109] + z[2421] >= 0
 zxi_110_17: - xi[110] + z[2422] >= 0
 zxi_111_17: - xi[111] + z[2423] >= 0
 zxi_112_17: - xi[112] + z[2424] >= 0
 zxi_113_17: - xi[113] + z[2425] >= 0
 zxi_114_17: - xi[114] + z[2426] >= 0
 zxi_115_17: - xi[115] + z[2427] >= 0
 zxi_116_17: - xi[116] + z[2428] >= 0
 zxi_117_17: - xi[117] + z[2429] >= 0
 zxi_118_17: - xi[118] + z[2430] >= 0
 zxi_119_17: - xi[119] + z[2431] >= 0
 zxi_120_17: - xi[120] + z[2432] >= 0
 zxi_121_17: - xi[121] + z[2433] >= 0
 zxi_122_17: - xi[122] + z[2434] >= 0
 zxi_123_17: - xi[123] + z[2435] >= 0
 zxi_124_17: - xi[124] + z[2436] >= 0
 zxi_125_17: - xi[125] + z[2437] >= 0
 zxi_126_17: - xi[126] + z[2438] >= 0
 zxi_127_17: - xi[127] + z[2439] >= 0
 zxi_128_17: - xi[128] + z[2440] >= 0
 zxi_129_17: - xi[129] + z[2441] >= 0
 zxi_130_17: - xi[130] + z[2442] >= 0
 zxi_131_17: - xi[131] + z[2443] >= 0
 zxi_132_17: - xi[132] + z[2444] >= 0
 zxi_133_17: - xi[133] + z[2445] >= 0
 zxi_134_17: - xi[134] + z[2446] >= 0
 zxi_135_17: - xi[135] + z[2447] >= 0
 zxi_0_18: - xi[0] + z[2448] >= 0
 zxi_1_18: - xi[1] + z[2449] >= 0
 zxi_2_18: - xi[2] + z[2450] >= 0
 zxi_3_18: - xi[3] + z[2451] >= 0
 zxi_4_18: - xi[4] + z[2452] >= 0
 zxi_5_18: - xi[5] + z[2453] >= 0
 zxi_6_18: - xi[6] + z[2454] >= 0
 zxi_7_18: - xi[7] + z[2455] >= 0
 zxi_8_18: - xi[8] + z[2456] >= 0
 zxi_9_18: - xi[9] + z[2457] >= 0
 zxi_10_18: - xi[10] + z[2458] >= 0
 zxi_11_18: - xi[11] + z[2459] >= 0
 zxi_12_18: - xi[12] + z[2460] >= 0
 zxi_13_18: - xi[13] + z[2461] >= 0
 zxi_14_18: - xi[14] + z[2462] >= 0
 zxi_15_18: - xi[15] + z[2463] >= 0
 zxi_16_18: - xi[16] + z[2464] >= 0
 zxi_17_18: - xi[17] + z[2465] >= 0
 zxi_18_18: - xi[18] + z[2466] >= 0
 zxi_19_18: - xi[19] + z[2467] >= 0
 zxi_20_18: - xi[20] + z[2468] >= 0
 zxi_21_18: - xi[21] + z[2469] >= 0
 zxi_22_18: - xi[22] + z[2470] >= 0
 zxi_23_18: - xi[23] + z[2471] >= 0
 zxi_24_18: - xi[24] + z[2472] >= 0
 zxi_25_18: - xi[25] + z[2473] >= 0
 zxi_26_18: - xi[26] + z[2474] >= 0
 zxi_27_18: - xi[27] + z[2475] >= 0
 zxi_28_18: - xi[28] + z[2476] >= 0
 zxi_29_18: - xi[29] + z[2477] >= 0
 zxi_30_18: - xi[30] + z[2478] >= 0
 zxi_31_18: - xi[31] + z[2479] >= 0
 zxi_32_18: - xi[32] + z[2480] >= 0
 zxi_33_18: - xi[33] + z[2481] >= 0
 zxi_34_18: - xi[34] + z[2482] >= 0
 zxi_35_18: - xi[35] + z[2483] >= 0
 zxi_36_18: - xi[36] + z[2484] >= 0
 zxi_37_18: - xi[37] + z[2485] >= 0
 zxi_38_18: - xi[38] + z[2486] >= 0
 zxi_39_18: - xi[39] + z[2487] >= 0
 zxi_40_18: - xi[40] + z[2488] >= 0
 zxi_41_18: - xi[41] + z[2489] >= 0
 zxi_42_18: - xi[42] + z[2490] >= 0
 zxi_43_18: - xi[43] + z[2491] >= 0
 zxi_44_18: - xi[44] + z[2492] >= 0
 zxi_45_18: - xi[45] + z[2493] >= 0
 zxi_46_18: - xi[46] + z[2494] >= 0
 zxi_47_18: - xi[47] + z[2495] >= 0
 zxi_48_18: - xi[48] + z[2496] >= 0
 zxi_49_18: - xi[49] + z[2497] >= 0
 zxi_50_18: - xi[50] + z[2498] >= 0
 zxi_51_18: - xi[51] + z[2499] >= 0
 zxi_52_18: - xi[52] + z[2500] >= 0
 zxi_53_18: - xi[53] + z[2501] >= 0
 zxi_54_18: - xi[54] + z[2502] >= 0
 zxi_55_18: - xi[55] + z[2503] >= 0
 zxi_56_18: - xi[56] + z[2504] >= 0
 zxi_57_18: - xi[57] + z[2505] >= 0
 zxi_58_18: - xi[58] + z[2506] >= 0
 zxi_59_18: - xi[59] + z[2507] >= 0
 zxi_60_18: - xi[60] + z[2508] >= 0
 zxi_61_18: - xi[61] + z[2509] >= 0
 zxi_62_18: - xi[62] + z[2510] >= 0
 zxi_63_18: - xi[63] + z[2511] >= 0
 zxi_64_18: - xi[64] + z[2512] >= 0
 zxi_65_18: - xi[65] + z[2513] >= 0
 zxi_66_18: - xi[66] + z[2514] >= 0
 zxi_67_18: - xi[67] + z[2515] >= 0
 zxi_68_18: - xi[68] + z[2516] >= 0
 zxi_69_18: - xi[69] + z[2517] >= 0
 zxi_70_18: - xi[70] + z[2518] >= 0
 zxi_71_18: - xi[71] + z[2519] >= 0
 zxi_72_18: - xi[72] + z[2520] >= 0
 zxi_73_18: - xi[73] + z[2521] >= 0
 zxi_74_18: - xi[74] + z[2522] >= 0
 zxi_75_18: - xi[75] + z[2523] >= 0
 zxi_76_18: - xi[76] + z[2524] >= 0
 zxi_77_18: - xi[77] + z[2525] >= 0
 zxi_78_18: - xi[78] + z[2526] >= 0
 zxi_79_18: - xi[79] + z[2527] >= 0
 zxi_80_18: - xi[80] + z[2528] >= 0
 zxi_81_18: - xi[81] + z[2529] >= 0
 zxi_82_18: - xi[82] + z[2530] >= 0
 zxi_83_18: - xi[83] + z[2531] >= 0
 zxi_84_18: - xi[84] + z[2532] >= 0
 zxi_85_18: - xi[85] + z[2533] >= 0
 zxi_86_18: - xi[86] + z[2534] >= 0
 zxi_87_18: - xi[87] + z[2535] >= 0
 zxi_88_18: - xi[88] + z[2536] >= 0
 zxi_89_18: - xi[89] + z[2537] >= 0
 zxi_90_18: - xi[90] + z[2538] >= 0
 zxi_91_18: - xi[91] + z[2539] >= 0
 zxi_92_18: - xi[92] + z[2540] >= 0
 zxi_93_18: - xi[93] + z[2541] >= 0
 zxi_94_18: - xi[94] + z[2542] >= 0
 zxi_95_18: - xi[95] + z[2543] >= 0
 zxi_96_18: - xi[96] + z[2544] >= 0
 zxi_97_18: - xi[97] + z[2545] >= 0
 zxi_98_18: - xi[98] + z[2546] >= 0
 zxi_99_18: - xi[99] + z[2547] >= 0
 zxi_100_18: - xi[100] + z[2548] >= 0
 zxi_101_18: - xi[101] + z[2549] >= 0
 zxi_102_18: - xi[102] + z[2550] >= 0
 zxi_103_18: - xi[103] + z[2551] >= 0
 zxi_104_18: - xi[104] + z[2552] >= 0
 zxi_105_18: - xi[105] + z[2553] >= 0
 zxi_106_18: - xi[106] + z[2554] >= 0
 zxi_107_18: - xi[107] + z[2555] >= 0
 zxi_108_18: - xi[108] + z[2556] >= 0
 zxi_109_18: - xi[109] + z[2557] >= 0
 zxi_110_18: - xi[110] + z[2558] >= 0
 zxi_111_18: - xi[111] + z[2559] >= 0
 zxi_112_18: - xi[112] + z[2560] >= 0
 zxi_113_18: - xi[113] + z[2561] >= 0
 zxi_114_18: - xi[114] + z[2562] >= 0
 zxi_115_18: - xi[115] + z[2563] >= 0
 zxi_116_18: - xi[116] + z[2564] >= 0
 zxi_117_18: - xi[117] + z[2565] >= 0
 zxi_118_18: - xi[118] + z[2566] >= 0
 zxi_119_18: - xi[119] + z[2567] >= 0
 zxi_120_18: - xi[120] + z[2568] >= 0
 zxi_121_18: - xi[121] + z[2569] >= 0
 zxi_122_18: - xi[122] + z[2570] >= 0
 zxi_123_18: - xi[123] + z[2571] >= 0
 zxi_124_18: - xi[124] + z[2572] >= 0
 zxi_125_18: - xi[125] + z[2573] >= 0
 zxi_126_18: - xi[126] + z[2574] >= 0
 zxi_127_18: - xi[127] + z[2575] >= 0
 zxi_128_18: - xi[128] + z[2576] >= 0
 zxi_129_18: - xi[129] + z[2577] >= 0
 zxi_130_18: - xi[130] + z[2578] >= 0
 zxi_131_18: - xi[131] + z[2579] >= 0
 zxi_132_18: - xi[132] + z[2580] >= 0
 zxi_133_18: - xi[133] + z[2581] >= 0
 zxi_134_18: - xi[134] + z[2582] >= 0
 zxi_135_18: - xi[135] + z[2583] >= 0
 ybar_0: - yb[0] + [ b[0] * xi[0] + b[1] * xi[1] + b[2] * xi[2]
   + b[3] * xi[3] + b[4] * xi[4] + b[5] * xi[5] + b[6] * xi[6]
   + b[7] * xi[7] + b[8] * xi[8] + b[9] * xi[9] + b[10] * xi[10]
   + b[11] * xi[11] + b[12] * xi[12] + b[13] * xi[13] + b[14] * xi[14]
   + b[15] * xi[15] ] = 0
 ybar_1: - yb[1] + [ m[0] * xi[0] + m[1] * xi[1] + m[2] * xi[2]
   + m[3] * xi[3] + m[4] * xi[4] + m[5] * xi[5] + m[6] * xi[6]
   + m[7] * xi[7] + m[8] * xi[8] + m[9] * xi[9] + m[10] * xi[10]
   + m[11] * xi[11] + m[12] * xi[12] + m[13] * xi[13] + m[14] * xi[14]
   + m[15] * xi[15] + m[16] * xi[16] + m[17] * xi[17] + m[18] * xi[18]
   + m[19] * xi[19] + m[20] * xi[20] + m[21] * xi[21] + m[22] * xi[22]
   + m[23] * xi[23] + m[24] * xi[24] + m[25] * xi[25] + m[26] * xi[26]
   + m[27] * xi[27] + m[28] * xi[28] + m[29] * xi[29] + m[30] * xi[30]
   + b[0] * xi[0] + b[1] * xi[1] + b[2] * xi[2] + b[3] * xi[3]
   + b[4] * xi[4] + b[5] * xi[5] + b[6] * xi[6] + b[7] * xi[7]
   + b[8] * xi[8] + b[9] * xi[9] + b[10] * xi[10] + b[11] * xi[11]
   + b[12] * xi[12] + b[13] * xi[13] + b[14] * xi[14] + b[15] * xi[15]
   + b[16] * xi[16] + b[17] * xi[17] + b[18] * xi[18] + b[19] * xi[19]
   + b[20] * xi[20] + b[21] * xi[21] + b[22] * xi[22] + b[23] * xi[23]
   + b[24] * xi[24] + b[25] * xi[25] + b[26] * xi[26] + b[27] * xi[27]
   + b[28] * xi[28] + b[29] * xi[29] + b[30] * xi[30] ] = 0
 ybar_2: - yb[2] + [ 2 m[0] * xi[0] + 2 m[1] * xi[1] + 2 m[2] * xi[2]
   + 2 m[3] * xi[3] + 2 m[4] * xi[4] + 2 m[5] * xi[5] + 2 m[6] * xi[6]
   + 2 m[7] * xi[7] + 2 m[8] * xi[8] + 2 m[9] * xi[9] + 2 m[10] * xi[10]
   + 2 m[11] * xi[11] + 2 m[12] * xi[12] + 2 m[13] * xi[13]
   + 2 m[14] * xi[14] + 2 m[15] * xi[15] + 2 m[16] * xi[16]
   + 2 m[17] * xi[17] + 2 m[18] * xi[18] + 2 m[19] * xi[19]
   + 2 m[20] * xi[20] + 2 m[21] * xi[21] + 2 m[22] * xi[22]
   + 2 m[23] * xi[23] + 2 m[24] * xi[24] + 2 m[25] * xi[25]
   + 2 m[26] * xi[26] + 2 m[27] * xi[27] + 2 m[28] * xi[28]
   + 2 m[29] * xi[29] + 2 m[30] * xi[30] + 2 m[31] * xi[31]
   + 2 m[32] * xi[32] + 2 m[33] * xi[33] + 2 m[34] * xi[34]
   + 2 m[35] * xi[35] + 2 m[36] * xi[36] + 2 m[37] * xi[37]
   + 2 m[38] * xi[38] + 2 m[39] * xi[39] + 2 m[40] * xi[40]
   + 2 m[41] * xi[41] + 2 m[42] * xi[42] + 2 m[43] * xi[43]
   + 2 m[44] * xi[44] + b[0] * xi[0] + b[1] * xi[1] + b[2] * xi[2]
   + b[3] * xi[3] + b[4] * xi[4] + b[5] * xi[5] + b[6] * xi[6]
   + b[7] * xi[7] + b[8] * xi[8] + b[9] * xi[9] + b[10] * xi[10]
   + b[11] * xi[11] + b[12] * xi[12] + b[13] * xi[13] + b[14] * xi[14]
   + b[15] * xi[15] + b[16] * xi[16] + b[17] * xi[17] + b[18] * xi[18]
   + b[19] * xi[19] + b[20] * xi[20] + b[21] * xi[21] + b[22] * xi[22]
   + b[23] * xi[23] + b[24] * xi[24] + b[25] * xi[25] + b[26] * xi[26]
   + b[27] * xi[27] + b[28] * xi[28] + b[29] * xi[29] + b[30] * xi[30]
   + b[31] * xi[31] + b[32] * xi[32] + b[33] * xi[33] + b[34] * xi[34]
   + b[35] * xi[35] + b[36] * xi[36] + b[37] * xi[37] + b[38] * xi[38]
   + b[39] * xi[39] + b[40] * xi[40] + b[41] * xi[41] + b[42] * xi[42]
   + b[43] * xi[43] + b[44] * xi[44] ] = 0
 ybar_3: - yb[3] + [ 3 m[0] * xi[0] + 3 m[1] * xi[1] + 3 m[2] * xi[2]
   + 3 m[3] * xi[3] + 3 m[4] * xi[4] + 3 m[5] * xi[5] + 3 m[6] * xi[6]
   + 3 m[7] * xi[7] + 3 m[8] * xi[8] + 3 m[9] * xi[9] + 3 m[10] * xi[10]
   + 3 m[11] * xi[11] + 3 m[12] * xi[12] + 3 m[13] * xi[13]
   + 3 m[14] * xi[14] + 3 m[15] * xi[15] + 3 m[16] * xi[16]
   + 3 m[17] * xi[17] + 3 m[18] * xi[18] + 3 m[19] * xi[19]
   + 3 m[20] * xi[20] + 3 m[21] * xi[21] + 3 m[22] * xi[22]
   + 3 m[23] * xi[23] + 3 m[24] * xi[24] + 3 m[25] * xi[25]
   + 3 m[26] * xi[26] + 3 m[27] * xi[27] + 3 m[28] * xi[28]
   + 3 m[29] * xi[29] + 3 m[30] * xi[30] + 3 m[31] * xi[31]
   + 3 m[32] * xi[32] + 3 m[33] * xi[33] + 3 m[34] * xi[34]
   + 3 m[35] * xi[35] + 3 m[36] * xi[36] + 3 m[37] * xi[37]
   + 3 m[38] * xi[38] + 3 m[39] * xi[39] + 3 m[40] * xi[40]
   + 3 m[41] * xi[41] + 3 m[42] * xi[42] + 3 m[43] * xi[43]
   + 3 m[44] * xi[44] + 3 m[45] * xi[45] + 3 m[46] * xi[46]
   + 3 m[47] * xi[47] + 3 m[48] * xi[48] + 3 m[49] * xi[49]
   + 3 m[50] * xi[50] + 3 m[51] * xi[51] + 3 m[52] * xi[52]
   + 3 m[53] * xi[53] + 3 m[54] * xi[54] + 3 m[55] * xi[55]
   + 3 m[56] * xi[56] + 3 m[57] * xi[57] + b[0] * xi[0] + b[1] * xi[1]
   + b[2] * xi[2] + b[3] * xi[3] + b[4] * xi[4] + b[5] * xi[5]
   + b[6] * xi[6] + b[7] * xi[7] + b[8] * xi[8] + b[9] * xi[9]
   + b[10] * xi[10] + b[11] * xi[11] + b[12] * xi[12] + b[13] * xi[13]
   + b[14] * xi[14] + b[15] * xi[15] + b[16] * xi[16] + b[17] * xi[17]
   + b[18] * xi[18] + b[19] * xi[19] + b[20] * xi[20] + b[21] * xi[21]
   + b[22] * xi[22] + b[23] * xi[23] + b[24] * xi[24] + b[25] * xi[25]
   + b[26] * xi[26] + b[27] * xi[27] + b[28] * xi[28] + b[29] * xi[29]
   + b[30] * xi[30] + b[31] * xi[31] + b[32] * xi[32] + b[33] * xi[33]
   + b[34] * xi[34] + b[35] * xi[35] + b[36] * xi[36] + b[37] * xi[37]
   + b[38] * xi[38] + b[39] * xi[39] + b[40] * xi[40] + b[41] * xi[41]
   + b[42] * xi[42] + b[43] * xi[43] + b[44] * xi[44] + b[45] * xi[45]
   + b[46] * xi[46] + b[47] * xi[47] + b[48] * xi[48] + b[49] * xi[49]
   + b[50] * xi[50] + b[51] * xi[51] + b[52] * xi[52] + b[53] * xi[53]
   + b[54] * xi[54] + b[55] * xi[55] + b[56] * xi[56] + b[57] * xi[57] ]
   = 0
 ybar_4: - yb[4] + [ 4 m[0] * xi[0] + 4 m[1] * xi[1] + 4 m[2] * xi[2]
   + 4 m[3] * xi[3] + 4 m[4] * xi[4] + 4 m[5] * xi[5] + 4 m[6] * xi[6]
   + 4 m[7] * xi[7] + 4 m[8] * xi[8] + 4 m[9] * xi[9] + 4 m[10] * xi[10]
   + 4 m[11] * xi[11] + 4 m[12] * xi[12] + 4 m[13] * xi[13]
   + 4 m[14] * xi[14] + 4 m[15] * xi[15] + 4 m[16] * xi[16]
   + 4 m[17] * xi[17] + 4 m[18] * xi[18] + 4 m[19] * xi[19]
   + 4 m[20] * xi[20] + 4 m[21] * xi[21] + 4 m[22] * xi[22]
   + 4 m[23] * xi[23] + 4 m[24] * xi[24] + 4 m[25] * xi[25]
   + 4 m[26] * xi[26] + 4 m[27] * xi[27] + 4 m[28] * xi[28]
   + 4 m[29] * xi[29] + 4 m[30] * xi[30] + 4 m[31] * xi[31]
   + 4 m[32] * xi[32] + 4 m[33] * xi[33] + 4 m[34] * xi[34]
   + 4 m[35] * xi[35] + 4 m[36] * xi[36] + 4 m[37] * xi[37]
   + 4 m[38] * xi[38] + 4 m[39] * xi[39] + 4 m[40] * xi[40]
   + 4 m[41] * xi[41] + 4 m[42] * xi[42] + 4 m[43] * xi[43]
   + 4 m[44] * xi[44] + 4 m[45] * xi[45] + 4 m[46] * xi[46]
   + 4 m[47] * xi[47] + 4 m[48] * xi[48] + 4 m[49] * xi[49]
   + 4 m[50] * xi[50] + 4 m[51] * xi[51] + 4 m[52] * xi[52]
   + 4 m[53] * xi[53] + 4 m[54] * xi[54] + 4 m[55] * xi[55]
   + 4 m[56] * xi[56] + 4 m[57] * xi[57] + 4 m[58] * xi[58]
   + 4 m[59] * xi[59] + 4 m[60] * xi[60] + 4 m[61] * xi[61]
   + 4 m[62] * xi[62] + 4 m[63] * xi[63] + 4 m[64] * xi[64]
   + 4 m[65] * xi[65] + 4 m[66] * xi[66] + 4 m[67] * xi[67]
   + 4 m[68] * xi[68] + 4 m[69] * xi[69] + b[0] * xi[0] + b[1] * xi[1]
   + b[2] * xi[2] + b[3] * xi[3] + b[4] * xi[4] + b[5] * xi[5]
   + b[6] * xi[6] + b[7] * xi[7] + b[8] * xi[8] + b[9] * xi[9]
   + b[10] * xi[10] + b[11] * xi[11] + b[12] * xi[12] + b[13] * xi[13]
   + b[14] * xi[14] + b[15] * xi[15] + b[16] * xi[16] + b[17] * xi[17]
   + b[18] * xi[18] + b[19] * xi[19] + b[20] * xi[20] + b[21] * xi[21]
   + b[22] * xi[22] + b[23] * xi[23] + b[24] * xi[24] + b[25] * xi[25]
   + b[26] * xi[26] + b[27] * xi[27] + b[28] * xi[28] + b[29] * xi[29]
   + b[30] * xi[30] + b[31] * xi[31] + b[32] * xi[32] + b[33] * xi[33]
   + b[34] * xi[34] + b[35] * xi[35] + b[36] * xi[36] + b[37] * xi[37]
   + b[38] * xi[38] + b[39] * xi[39] + b[40] * xi[40] + b[41] * xi[41]
   + b[42] * xi[42] + b[43] * xi[43] + b[44] * xi[44] + b[45] * xi[45]
   + b[46] * xi[46] + b[47] * xi[47] + b[48] * xi[48] + b[49] * xi[49]
   + b[50] * xi[50] + b[51] * xi[51] + b[52] * xi[52] + b[53] * xi[53]
   + b[54] * xi[54] + b[55] * xi[55] + b[56] * xi[56] + b[57] * xi[57]
   + b[58] * xi[58] + b[59] * xi[59] + b[60] * xi[60] + b[61] * xi[61]
   + b[62] * xi[62] + b[63] * xi[63] + b[64] * xi[64] + b[65] * xi[65]
   + b[66] * xi[66] + b[67] * xi[67] + b[68] * xi[68] + b[69] * xi[69] ]
   = 0
 ybar_5: - yb[5] + [ 5 m[1] * xi[0] + 5 m[2] * xi[1] + 5 m[3] * xi[2]
   + 5 m[4] * xi[3] + 5 m[5] * xi[4] + 5 m[6] * xi[5] + 5 m[7] * xi[6]
   + 5 m[8] * xi[7] + 5 m[9] * xi[8] + 5 m[10] * xi[9] + 5 m[11] * xi[10]
   + 5 m[12] * xi[11] + 5 m[13] * xi[12] + 5 m[14] * xi[13]
   + 5 m[15] * xi[14] + 5 m[16] * xi[15] + 5 m[17] * xi[16]
   + 5 m[18] * xi[17] + 5 m[19] * xi[18] + 5 m[20] * xi[19]
   + 5 m[21] * xi[20] + 5 m[22] * xi[21] + 5 m[23] * xi[22]
   + 5 m[24] * xi[23] + 5 m[25] * xi[24] + 5 m[26] * xi[25]
   + 5 m[27] * xi[26] + 5 m[28] * xi[27] + 5 m[29] * xi[28]
   + 5 m[30] * xi[29] + 5 m[31] * xi[30] + 5 m[32] * xi[31]
   + 5 m[33] * xi[32] + 5 m[34] * xi[33] + 5 m[35] * xi[34]
   + 5 m[36] * xi[35] + 5 m[37] * xi[36] + 5 m[38] * xi[37]
   + 5 m[39] * xi[38] + 5 m[40] * xi[39] + 5 m[41] * xi[40]
   + 5 m[42] * xi[41] + 5 m[43] * xi[42] + 5 m[44] * xi[43]
   + 5 m[45] * xi[44] + 5 m[46] * xi[45] + 5 m[47] * xi[46]
   + 5 m[48] * xi[47] + 5 m[49] * xi[48] + 5 m[50] * xi[49]
   + 5 m[51] * xi[50] + 5 m[52] * xi[51] + 5 m[53] * xi[52]
   + 5 m[54] * xi[53] + 5 m[55] * xi[54] + 5 m[56] * xi[55]
   + 5 m[57] * xi[56] + 5 m[58] * xi[57] + 5 m[59] * xi[58]
   + 5 m[60] * xi[59] + 5 m[61] * xi[60] + 5 m[62] * xi[61]
   + 5 m[63] * xi[62] + 5 m[64] * xi[63] + 5 m[65] * xi[64]
   + 5 m[66] * xi[65] + 5 m[67] * xi[66] + 5 m[68] * xi[67]
   + 5 m[69] * xi[68] + 5 m[70] * xi[69] + 5 m[71] * xi[70]
   + 5 m[72] * xi[71] + 5 m[73] * xi[72] + 5 m[74] * xi[73]
   + 5 m[75] * xi[74] + 5 m[76] * xi[75] + 5 m[77] * xi[76]
   + 5 m[78] * xi[77] + 5 m[79] * xi[78] + 5 m[80] * xi[79] + b[1] * xi[0]
   + b[2] * xi[1] + b[3] * xi[2] + b[4] * xi[3] + b[5] * xi[4]
   + b[6] * xi[5] + b[7] * xi[6] + b[8] * xi[7] + b[9] * xi[8]
   + b[10] * xi[9] + b[11] * xi[10] + b[12] * xi[11] + b[13] * xi[12]
   + b[14] * xi[13] + b[15] * xi[14] + b[16] * xi[15] + b[17] * xi[16]
   + b[18] * xi[17] + b[19] * xi[18] + b[20] * xi[19] + b[21] * xi[20]
   + b[22] * xi[21] + b[23] * xi[22] + b[24] * xi[23] + b[25] * xi[24]
   + b[26] * xi[25] + b[27] * xi[26] + b[28] * xi[27] + b[29] * xi[28]
   + b[30] * xi[29] + b[31] * xi[30] + b[32] * xi[31] + b[33] * xi[32]
   + b[34] * xi[33] + b[35] * xi[34] + b[36] * xi[35] + b[37] * xi[36]
   + b[38] * xi[37] + b[39] * xi[38] + b[40] * xi[39] + b[41] * xi[40]
   + b[42] * xi[41] + b[43] * xi[42] + b[44] * xi[43] + b[45] * xi[44]
   + b[46] * xi[45] + b[47] * xi[46] + b[48] * xi[47] + b[49] * xi[48]
   + b[50] * xi[49] + b[51] * xi[50] + b[52] * xi[51] + b[53] * xi[52]
   + b[54] * xi[53] + b[55] * xi[54] + b[56] * xi[55] + b[57] * xi[56]
   + b[58] * xi[57] + b[59] * xi[58] + b[60] * xi[59] + b[61] * xi[60]
   + b[62] * xi[61] + b[63] * xi[62] + b[64] * xi[63] + b[65] * xi[64]
   + b[66] * xi[65] + b[67] * xi[66] + b[68] * xi[67] + b[69] * xi[68]
   + b[70] * xi[69] + b[71] * xi[70] + b[72] * xi[71] + b[73] * xi[72]
   + b[74] * xi[73] + b[75] * xi[74] + b[76] * xi[75] + b[77] * xi[76]
   + b[78] * xi[77] + b[79] * xi[78] + b[80] * xi[79] ] = 0
 ybar_6: - yb[6] + [ 6 m[2] * xi[0] + 6 m[3] * xi[1] + 6 m[4] * xi[2]
   + 6 m[5] * xi[3] + 6 m[6] * xi[4] + 6 m[7] * xi[5] + 6 m[8] * xi[6]
   + 6 m[9] * xi[7] + 6 m[10] * xi[8] + 6 m[11] * xi[9] + 6 m[12] * xi[10]
   + 6 m[13] * xi[11] + 6 m[14] * xi[12] + 6 m[15] * xi[13]
   + 6 m[17] * xi[14] + 6 m[18] * xi[15] + 6 m[19] * xi[16]
   + 6 m[20] * xi[17] + 6 m[21] * xi[18] + 6 m[22] * xi[19]
   + 6 m[23] * xi[20] + 6 m[24] * xi[21] + 6 m[25] * xi[22]
   + 6 m[26] * xi[23] + 6 m[27] * xi[24] + 6 m[28] * xi[25]
   + 6 m[29] * xi[26] + 6 m[30] * xi[27] + 6 m[31] * xi[28]
   + 6 m[32] * xi[29] + 6 m[33] * xi[30] + 6 m[34] * xi[31]
   + 6 m[35] * xi[32] + 6 m[36] * xi[33] + 6 m[37] * xi[34]
   + 6 m[38] * xi[35] + 6 m[39] * xi[36] + 6 m[40] * xi[37]
   + 6 m[41] * xi[38] + 6 m[42] * xi[39] + 6 m[43] * xi[40]
   + 6 m[44] * xi[41] + 6 m[45] * xi[42] + 6 m[46] * xi[43]
   + 6 m[47] * xi[44] + 6 m[48] * xi[45] + 6 m[49] * xi[46]
   + 6 m[50] * xi[47] + 6 m[51] * xi[48] + 6 m[52] * xi[49]
   + 6 m[53] * xi[50] + 6 m[54] * xi[51] + 6 m[55] * xi[52]
   + 6 m[56] * xi[53] + 6 m[57] * xi[54] + 6 m[58] * xi[55]
   + 6 m[59] * xi[56] + 6 m[60] * xi[57] + 6 m[61] * xi[58]
   + 6 m[62] * xi[59] + 6 m[63] * xi[60] + 6 m[64] * xi[61]
   + 6 m[65] * xi[62] + 6 m[66] * xi[63] + 6 m[67] * xi[64]
   + 6 m[68] * xi[65] + 6 m[69] * xi[66] + 6 m[70] * xi[67]
   + 6 m[71] * xi[68] + 6 m[72] * xi[69] + 6 m[73] * xi[70]
   + 6 m[74] * xi[71] + 6 m[75] * xi[72] + 6 m[76] * xi[73]
   + 6 m[77] * xi[74] + 6 m[78] * xi[75] + 6 m[79] * xi[76]
   + 6 m[80] * xi[77] + 6 m[81] * xi[78] + 6 m[82] * xi[79]
   + 6 m[83] * xi[80] + 6 m[84] * xi[81] + 6 m[85] * xi[82]
   + 6 m[86] * xi[83] + 6 m[87] * xi[84] + 6 m[88] * xi[85]
   + 6 m[89] * xi[86] + 6 m[90] * xi[87] + b[2] * xi[0] + b[3] * xi[1]
   + b[4] * xi[2] + b[5] * xi[3] + b[6] * xi[4] + b[7] * xi[5]
   + b[8] * xi[6] + b[9] * xi[7] + b[10] * xi[8] + b[11] * xi[9]
   + b[12] * xi[10] + b[13] * xi[11] + b[14] * xi[12] + b[15] * xi[13]
   + b[17] * xi[14] + b[18] * xi[15] + b[19] * xi[16] + b[20] * xi[17]
   + b[21] * xi[18] + b[22] * xi[19] + b[23] * xi[20] + b[24] * xi[21]
   + b[25] * xi[22] + b[26] * xi[23] + b[27] * xi[24] + b[28] * xi[25]
   + b[29] * xi[26] + b[30] * xi[27] + b[31] * xi[28] + b[32] * xi[29]
   + b[33] * xi[30] + b[34] * xi[31] + b[35] * xi[32] + b[36] * xi[33]
   + b[37] * xi[34] + b[38] * xi[35] + b[39] * xi[36] + b[40] * xi[37]
   + b[41] * xi[38] + b[42] * xi[39] + b[43] * xi[40] + b[44] * xi[41]
   + b[45] * xi[42] + b[46] * xi[43] + b[47] * xi[44] + b[48] * xi[45]
   + b[49] * xi[46] + b[50] * xi[47] + b[51] * xi[48] + b[52] * xi[49]
   + b[53] * xi[50] + b[54] * xi[51] + b[55] * xi[52] + b[56] * xi[53]
   + b[57] * xi[54] + b[58] * xi[55] + b[59] * xi[56] + b[60] * xi[57]
   + b[61] * xi[58] + b[62] * xi[59] + b[63] * xi[60] + b[64] * xi[61]
   + b[65] * xi[62] + b[66] * xi[63] + b[67] * xi[64] + b[68] * xi[65]
   + b[69] * xi[66] + b[70] * xi[67] + b[71] * xi[68] + b[72] * xi[69]
   + b[73] * xi[70] + b[74] * xi[71] + b[75] * xi[72] + b[76] * xi[73]
   + b[77] * xi[74] + b[78] * xi[75] + b[79] * xi[76] + b[80] * xi[77]
   + b[81] * xi[78] + b[82] * xi[79] + b[83] * xi[80] + b[84] * xi[81]
   + b[85] * xi[82] + b[86] * xi[83] + b[87] * xi[84] + b[88] * xi[85]
   + b[89] * xi[86] + b[90] * xi[87] ] = 0
 ybar_7: - yb[7] + [ 7 m[3] * xi[0] + 7 m[4] * xi[1] + 7 m[5] * xi[2]
   + 7 m[6] * xi[3] + 7 m[7] * xi[4] + 7 m[8] * xi[5] + 7 m[9] * xi[6]
   + 7 m[10] * xi[7] + 7 m[11] * xi[8] + 7 m[12] * xi[9] + 7 m[13] * xi[10]
   + 7 m[14] * xi[11] + 7 m[15] * xi[12] + 7 m[18] * xi[13]
   + 7 m[19] * xi[14] + 7 m[20] * xi[15] + 7 m[21] * xi[16]
   + 7 m[22] * xi[17] + 7 m[23] * xi[18] + 7 m[24] * xi[19]
   + 7 m[25] * xi[20] + 7 m[26] * xi[21] + 7 m[27] * xi[22]
   + 7 m[28] * xi[23] + 7 m[29] * xi[24] + 7 m[30] * xi[25]
   + 7 m[32] * xi[26] + 7 m[33] * xi[27] + 7 m[34] * xi[28]
   + 7 m[35] * xi[29] + 7 m[36] * xi[30] + 7 m[37] * xi[31]
   + 7 m[38] * xi[32] + 7 m[39] * xi[33] + 7 m[40] * xi[34]
   + 7 m[41] * xi[35] + 7 m[42] * xi[36] + 7 m[43] * xi[37]
   + 7 m[44] * xi[38] + 7 m[45] * xi[39] + 7 m[46] * xi[40]
   + 7 m[47] * xi[41] + 7 m[48] * xi[42] + 7 m[49] * xi[43]
   + 7 m[50] * xi[44] + 7 m[51] * xi[45] + 7 m[52] * xi[46]
   + 7 m[53] * xi[47] + 7 m[54] * xi[48] + 7 m[55] * xi[49]
   + 7 m[56] * xi[50] + 7 m[57] * xi[51] + 7 m[58] * xi[52]
   + 7 m[59] * xi[53] + 7 m[60] * xi[54] + 7 m[61] * xi[55]
   + 7 m[62] * xi[56] + 7 m[63] * xi[57] + 7 m[64] * xi[58]
   + 7 m[65] * xi[59] + 7 m[66] * xi[60] + 7 m[67] * xi[61]
   + 7 m[68] * xi[62] + 7 m[69] * xi[63] + 7 m[70] * xi[64]
   + 7 m[71] * xi[65] + 7 m[72] * xi[66] + 7 m[73] * xi[67]
   + 7 m[74] * xi[68] + 7 m[75] * xi[69] + 7 m[76] * xi[70]
   + 7 m[77] * xi[71] + 7 m[78] * xi[72] + 7 m[79] * xi[73]
   + 7 m[80] * xi[74] + 7 m[81] * xi[75] + 7 m[82] * xi[76]
   + 7 m[83] * xi[77] + 7 m[84] * xi[78] + 7 m[85] * xi[79]
   + 7 m[86] * xi[80] + 7 m[87] * xi[81] + 7 m[88] * xi[82]
   + 7 m[89] * xi[83] + 7 m[90] * xi[84] + 7 m[91] * xi[85]
   + 7 m[92] * xi[86] + 7 m[93] * xi[87] + 7 m[94] * xi[88]
   + 7 m[95] * xi[89] + 7 m[96] * xi[90] + 7 m[97] * xi[91]
   + 7 m[98] * xi[92] + 7 m[99] * xi[93] + b[3] * xi[0] + b[4] * xi[1]
   + b[5] * xi[2] + b[6] * xi[3] + b[7] * xi[4] + b[8] * xi[5]
   + b[9] * xi[6] + b[10] * xi[7] + b[11] * xi[8] + b[12] * xi[9]
   + b[13] * xi[10] + b[14] * xi[11] + b[15] * xi[12] + b[18] * xi[13]
   + b[19] * xi[14] + b[20] * xi[15] + b[21] * xi[16] + b[22] * xi[17]
   + b[23] * xi[18] + b[24] * xi[19] + b[25] * xi[20] + b[26] * xi[21]
   + b[27] * xi[22] + b[28] * xi[23] + b[29] * xi[24] + b[30] * xi[25]
   + b[32] * xi[26] + b[33] * xi[27] + b[34] * xi[28] + b[35] * xi[29]
   + b[36] * xi[30] + b[37] * xi[31] + b[38] * xi[32] + b[39] * xi[33]
   + b[40] * xi[34] + b[41] * xi[35] + b[42] * xi[36] + b[43] * xi[37]
   + b[44] * xi[38] + b[45] * xi[39] + b[46] * xi[40] + b[47] * xi[41]
   + b[48] * xi[42] + b[49] * xi[43] + b[50] * xi[44] + b[51] * xi[45]
   + b[52] * xi[46] + b[53] * xi[47] + b[54] * xi[48] + b[55] * xi[49]
   + b[56] * xi[50] + b[57] * xi[51] + b[58] * xi[52] + b[59] * xi[53]
   + b[60] * xi[54] + b[61] * xi[55] + b[62] * xi[56] + b[63] * xi[57]
   + b[64] * xi[58] + b[65] * xi[59] + b[66] * xi[60] + b[67] * xi[61]
   + b[68] * xi[62] + b[69] * xi[63] + b[70] * xi[64] + b[71] * xi[65]
   + b[72] * xi[66] + b[73] * xi[67] + b[74] * xi[68] + b[75] * xi[69]
   + b[76] * xi[70] + b[77] * xi[71] + b[78] * xi[72] + b[79] * xi[73]
   + b[80] * xi[74] + b[81] * xi[75] + b[82] * xi[76] + b[83] * xi[77]
   + b[84] * xi[78] + b[85] * xi[79] + b[86] * xi[80] + b[87] * xi[81]
   + b[88] * xi[82] + b[89] * xi[83] + b[90] * xi[84] + b[91] * xi[85]
   + b[92] * xi[86] + b[93] * xi[87] + b[94] * xi[88] + b[95] * xi[89]
   + b[96] * xi[90] + b[97] * xi[91] + b[98] * xi[92] + b[99] * xi[93] ]
   = 0
 ybar_8: - yb[8] + [ 8 m[4] * xi[0] + 8 m[5] * xi[1] + 8 m[6] * xi[2]
   + 8 m[7] * xi[3] + 8 m[8] * xi[4] + 8 m[9] * xi[5] + 8 m[10] * xi[6]
   + 8 m[11] * xi[7] + 8 m[12] * xi[8] + 8 m[13] * xi[9] + 8 m[14] * xi[10]
   + 8 m[15] * xi[11] + 8 m[19] * xi[12] + 8 m[20] * xi[13]
   + 8 m[21] * xi[14] + 8 m[22] * xi[15] + 8 m[23] * xi[16]
   + 8 m[24] * xi[17] + 8 m[25] * xi[18] + 8 m[26] * xi[19]
   + 8 m[27] * xi[20] + 8 m[28] * xi[21] + 8 m[29] * xi[22]
   + 8 m[30] * xi[23] + 8 m[33] * xi[24] + 8 m[34] * xi[25]
   + 8 m[35] * xi[26] + 8 m[36] * xi[27] + 8 m[37] * xi[28]
   + 8 m[38] * xi[29] + 8 m[39] * xi[30] + 8 m[40] * xi[31]
   + 8 m[41] * xi[32] + 8 m[42] * xi[33] + 8 m[43] * xi[34]
   + 8 m[44] * xi[35] + 8 m[46] * xi[36] + 8 m[47] * xi[37]
   + 8 m[48] * xi[38] + 8 m[49] * xi[39] + 8 m[50] * xi[40]
   + 8 m[51] * xi[41] + 8 m[52] * xi[42] + 8 m[53] * xi[43]
   + 8 m[54] * xi[44] + 8 m[55] * xi[45] + 8 m[56] * xi[46]
   + 8 m[57] * xi[47] + 8 m[58] * xi[48] + 8 m[59] * xi[49]
   + 8 m[60] * xi[50] + 8 m[61] * xi[51] + 8 m[62] * xi[52]
   + 8 m[63] * xi[53] + 8 m[64] * xi[54] + 8 m[65] * xi[55]
   + 8 m[66] * xi[56] + 8 m[67] * xi[57] + 8 m[68] * xi[58]
   + 8 m[69] * xi[59] + 8 m[70] * xi[60] + 8 m[71] * xi[61]
   + 8 m[72] * xi[62] + 8 m[73] * xi[63] + 8 m[74] * xi[64]
   + 8 m[75] * xi[65] + 8 m[76] * xi[66] + 8 m[77] * xi[67]
   + 8 m[78] * xi[68] + 8 m[79] * xi[69] + 8 m[80] * xi[70]
   + 8 m[81] * xi[71] + 8 m[82] * xi[72] + 8 m[83] * xi[73]
   + 8 m[84] * xi[74] + 8 m[85] * xi[75] + 8 m[86] * xi[76]
   + 8 m[87] * xi[77] + 8 m[88] * xi[78] + 8 m[89] * xi[79]
   + 8 m[90] * xi[80] + 8 m[91] * xi[81] + 8 m[92] * xi[82]
   + 8 m[93] * xi[83] + 8 m[94] * xi[84] + 8 m[95] * xi[85]
   + 8 m[96] * xi[86] + 8 m[97] * xi[87] + 8 m[98] * xi[88]
   + 8 m[99] * xi[89] + 8 m[100] * xi[90] + 8 m[101] * xi[91]
   + 8 m[102] * xi[92] + 8 m[103] * xi[93] + 8 m[104] * xi[94]
   + 8 m[105] * xi[95] + 8 m[106] * xi[96] + 8 m[107] * xi[97]
   + b[4] * xi[0] + b[5] * xi[1] + b[6] * xi[2] + b[7] * xi[3]
   + b[8] * xi[4] + b[9] * xi[5] + b[10] * xi[6] + b[11] * xi[7]
   + b[12] * xi[8] + b[13] * xi[9] + b[14] * xi[10] + b[15] * xi[11]
   + b[19] * xi[12] + b[20] * xi[13] + b[21] * xi[14] + b[22] * xi[15]
   + b[23] * xi[16] + b[24] * xi[17] + b[25] * xi[18] + b[26] * xi[19]
   + b[27] * xi[20] + b[28] * xi[21] + b[29] * xi[22] + b[30] * xi[23]
   + b[33] * xi[24] + b[34] * xi[25] + b[35] * xi[26] + b[36] * xi[27]
   + b[37] * xi[28] + b[38] * xi[29] + b[39] * xi[30] + b[40] * xi[31]
   + b[41] * xi[32] + b[42] * xi[33] + b[43] * xi[34] + b[44] * xi[35]
   + b[46] * xi[36] + b[47] * xi[37] + b[48] * xi[38] + b[49] * xi[39]
   + b[50] * xi[40] + b[51] * xi[41] + b[52] * xi[42] + b[53] * xi[43]
   + b[54] * xi[44] + b[55] * xi[45] + b[56] * xi[46] + b[57] * xi[47]
   + b[58] * xi[48] + b[59] * xi[49] + b[60] * xi[50] + b[61] * xi[51]
   + b[62] * xi[52] + b[63] * xi[53] + b[64] * xi[54] + b[65] * xi[55]
   + b[66] * xi[56] + b[67] * xi[57] + b[68] * xi[58] + b[69] * xi[59]
   + b[70] * xi[60] + b[71] * xi[61] + b[72] * xi[62] + b[73] * xi[63]
   + b[74] * xi[64] + b[75] * xi[65] + b[76] * xi[66] + b[77] * xi[67]
   + b[78] * xi[68] + b[79] * xi[69] + b[80] * xi[70] + b[81] * xi[71]
   + b[82] * xi[72] + b[83] * xi[73] + b[84] * xi[74] + b[85] * xi[75]
   + b[86] * xi[76] + b[87] * xi[77] + b[88] * xi[78] + b[89] * xi[79]
   + b[90] * xi[80] + b[91] * xi[81] + b[92] * xi[82] + b[93] * xi[83]
   + b[94] * xi[84] + b[95] * xi[85] + b[96] * xi[86] + b[97] * xi[87]
   + b[98] * xi[88] + b[99] * xi[89] + b[100] * xi[90] + b[101] * xi[91]
   + b[102] * xi[92] + b[103] * xi[93] + b[104] * xi[94] + b[105] * xi[95]
   + b[106] * xi[96] + b[107] * xi[97] ] = 0
 ybar_9: - yb[9] + [ 9 m[5] * xi[0] + 9 m[6] * xi[1] + 9 m[7] * xi[2]
   + 9 m[8] * xi[3] + 9 m[9] * xi[4] + 9 m[10] * xi[5] + 9 m[11] * xi[6]
   + 9 m[12] * xi[7] + 9 m[13] * xi[8] + 9 m[14] * xi[9] + 9 m[15] * xi[10]
   + 9 m[20] * xi[11] + 9 m[21] * xi[12] + 9 m[22] * xi[13]
   + 9 m[23] * xi[14] + 9 m[24] * xi[15] + 9 m[25] * xi[16]
   + 9 m[26] * xi[17] + 9 m[27] * xi[18] + 9 m[28] * xi[19]
   + 9 m[29] * xi[20] + 9 m[30] * xi[21] + 9 m[34] * xi[22]
   + 9 m[35] * xi[23] + 9 m[36] * xi[24] + 9 m[37] * xi[25]
   + 9 m[38] * xi[26] + 9 m[39] * xi[27] + 9 m[40] * xi[28]
   + 9 m[41] * xi[29] + 9 m[42] * xi[30] + 9 m[43] * xi[31]
   + 9 m[44] * xi[32] + 9 m[47] * xi[33] + 9 m[48] * xi[34]
   + 9 m[49] * xi[35] + 9 m[50] * xi[36] + 9 m[51] * xi[37]
   + 9 m[52] * xi[38] + 9 m[53] * xi[39] + 9 m[54] * xi[40]
   + 9 m[55] * xi[41] + 9 m[56] * xi[42] + 9 m[57] * xi[43]
   + 9 m[59] * xi[44] + 9 m[60] * xi[45] + 9 m[61] * xi[46]
   + 9 m[62] * xi[47] + 9 m[63] * xi[48] + 9 m[64] * xi[49]
   + 9 m[65] * xi[50] + 9 m[66] * xi[51] + 9 m[67] * xi[52]
   + 9 m[68] * xi[53] + 9 m[69] * xi[54] + 9 m[70] * xi[55]
   + 9 m[71] * xi[56] + 9 m[72] * xi[57] + 9 m[73] * xi[58]
   + 9 m[74] * xi[59] + 9 m[75] * xi[60] + 9 m[76] * xi[61]
   + 9 m[77] * xi[62] + 9 m[78] * xi[63] + 9 m[79] * xi[64]
   + 9 m[80] * xi[65] + 9 m[81] * xi[66] + 9 m[82] * xi[67]
   + 9 m[83] * xi[68] + 9 m[84] * xi[69] + 9 m[85] * xi[70]
   + 9 m[86] * xi[71] + 9 m[87] * xi[72] + 9 m[88] * xi[73]
   + 9 m[89] * xi[74] + 9 m[90] * xi[75] + 9 m[91] * xi[76]
   + 9 m[92] * xi[77] + 9 m[93] * xi[78] + 9 m[94] * xi[79]
   + 9 m[95] * xi[80] + 9 m[96] * xi[81] + 9 m[97] * xi[82]
   + 9 m[98] * xi[83] + 9 m[99] * xi[84] + 9 m[100] * xi[85]
   + 9 m[101] * xi[86] + 9 m[102] * xi[87] + 9 m[103] * xi[88]
   + 9 m[104] * xi[89] + 9 m[105] * xi[90] + 9 m[106] * xi[91]
   + 9 m[107] * xi[92] + 9 m[108] * xi[93] + 9 m[109] * xi[94]
   + 9 m[110] * xi[95] + 9 m[111] * xi[96] + 9 m[112] * xi[97]
   + 9 m[113] * xi[98] + 9 m[114] * xi[99] + b[5] * xi[0] + b[6] * xi[1]
   + b[7] * xi[2] + b[8] * xi[3] + b[9] * xi[4] + b[10] * xi[5]
   + b[11] * xi[6] + b[12] * xi[7] + b[13] * xi[8] + b[14] * xi[9]
   + b[15] * xi[10] + b[20] * xi[11] + b[21] * xi[12] + b[22] * xi[13]
   + b[23] * xi[14] + b[24] * xi[15] + b[25] * xi[16] + b[26] * xi[17]
   + b[27] * xi[18] + b[28] * xi[19] + b[29] * xi[20] + b[30] * xi[21]
   + b[34] * xi[22] + b[35] * xi[23] + b[36] * xi[24] + b[37] * xi[25]
   + b[38] * xi[26] + b[39] * xi[27] + b[40] * xi[28] + b[41] * xi[29]
   + b[42] * xi[30] + b[43] * xi[31] + b[44] * xi[32] + b[47] * xi[33]
   + b[48] * xi[34] + b[49] * xi[35] + b[50] * xi[36] + b[51] * xi[37]
   + b[52] * xi[38] + b[53] * xi[39] + b[54] * xi[40] + b[55] * xi[41]
   + b[56] * xi[42] + b[57] * xi[43] + b[59] * xi[44] + b[60] * xi[45]
   + b[61] * xi[46] + b[62] * xi[47] + b[63] * xi[48] + b[64] * xi[49]
   + b[65] * xi[50] + b[66] * xi[51] + b[67] * xi[52] + b[68] * xi[53]
   + b[69] * xi[54] + b[70] * xi[55] + b[71] * xi[56] + b[72] * xi[57]
   + b[73] * xi[58] + b[74] * xi[59] + b[75] * xi[60] + b[76] * xi[61]
   + b[77] * xi[62] + b[78] * xi[63] + b[79] * xi[64] + b[80] * xi[65]
   + b[81] * xi[66] + b[82] * xi[67] + b[83] * xi[68] + b[84] * xi[69]
   + b[85] * xi[70] + b[86] * xi[71] + b[87] * xi[72] + b[88] * xi[73]
   + b[89] * xi[74] + b[90] * xi[75] + b[91] * xi[76] + b[92] * xi[77]
   + b[93] * xi[78] + b[94] * xi[79] + b[95] * xi[80] + b[96] * xi[81]
   + b[97] * xi[82] + b[98] * xi[83] + b[99] * xi[84] + b[100] * xi[85]
   + b[101] * xi[86] + b[102] * xi[87] + b[103] * xi[88] + b[104] * xi[89]
   + b[105] * xi[90] + b[106] * xi[91] + b[107] * xi[92] + b[108] * xi[93]
   + b[109] * xi[94] + b[110] * xi[95] + b[111] * xi[96] + b[112] * xi[97]
   + b[113] * xi[98] + b[114] * xi[99] ] = 0
 ybar_10: - yb[10] + [ 10 m[6] * xi[0] + 10 m[7] * xi[1] + 10 m[8] * xi[2]
   + 10 m[9] * xi[3] + 10 m[10] * xi[4] + 10 m[11] * xi[5]
   + 10 m[12] * xi[6] + 10 m[13] * xi[7] + 10 m[14] * xi[8]
   + 10 m[15] * xi[9] + 10 m[21] * xi[10] + 10 m[22] * xi[11]
   + 10 m[23] * xi[12] + 10 m[24] * xi[13] + 10 m[25] * xi[14]
   + 10 m[26] * xi[15] + 10 m[27] * xi[16] + 10 m[28] * xi[17]
   + 10 m[29] * xi[18] + 10 m[30] * xi[19] + 10 m[35] * xi[20]
   + 10 m[36] * xi[21] + 10 m[37] * xi[22] + 10 m[38] * xi[23]
   + 10 m[39] * xi[24] + 10 m[40] * xi[25] + 10 m[41] * xi[26]
   + 10 m[42] * xi[27] + 10 m[43] * xi[28] + 10 m[44] * xi[29]
   + 10 m[48] * xi[30] + 10 m[49] * xi[31] + 10 m[50] * xi[32]
   + 10 m[51] * xi[33] + 10 m[52] * xi[34] + 10 m[53] * xi[35]
   + 10 m[54] * xi[36] + 10 m[55] * xi[37] + 10 m[56] * xi[38]
   + 10 m[57] * xi[39] + 10 m[60] * xi[40] + 10 m[61] * xi[41]
   + 10 m[62] * xi[42] + 10 m[63] * xi[43] + 10 m[64] * xi[44]
   + 10 m[65] * xi[45] + 10 m[66] * xi[46] + 10 m[67] * xi[47]
   + 10 m[68] * xi[48] + 10 m[69] * xi[49] + 10 m[71] * xi[50]
   + 10 m[72] * xi[51] + 10 m[73] * xi[52] + 10 m[74] * xi[53]
   + 10 m[75] * xi[54] + 10 m[76] * xi[55] + 10 m[77] * xi[56]
   + 10 m[78] * xi[57] + 10 m[79] * xi[58] + 10 m[80] * xi[59]
   + 10 m[81] * xi[60] + 10 m[82] * xi[61] + 10 m[83] * xi[62]
   + 10 m[84] * xi[63] + 10 m[85] * xi[64] + 10 m[86] * xi[65]
   + 10 m[87] * xi[66] + 10 m[88] * xi[67] + 10 m[89] * xi[68]
   + 10 m[90] * xi[69] + 10 m[91] * xi[70] + 10 m[92] * xi[71]
   + 10 m[93] * xi[72] + 10 m[94] * xi[73] + 10 m[95] * xi[74]
   + 10 m[96] * xi[75] + 10 m[97] * xi[76] + 10 m[98] * xi[77]
   + 10 m[99] * xi[78] + 10 m[100] * xi[79] + 10 m[101] * xi[80]
   + 10 m[102] * xi[81] + 10 m[103] * xi[82] + 10 m[104] * xi[83]
   + 10 m[105] * xi[84] + 10 m[106] * xi[85] + 10 m[107] * xi[86]
   + 10 m[108] * xi[87] + 10 m[109] * xi[88] + 10 m[110] * xi[89]
   + 10 m[111] * xi[90] + 10 m[112] * xi[91] + 10 m[113] * xi[92]
   + 10 m[114] * xi[93] + 10 m[115] * xi[94] + 10 m[116] * xi[95]
   + 10 m[117] * xi[96] + 10 m[118] * xi[97] + 10 m[119] * xi[98]
   + 10 m[120] * xi[99] + b[6] * xi[0] + b[7] * xi[1] + b[8] * xi[2]
   + b[9] * xi[3] + b[10] * xi[4] + b[11] * xi[5] + b[12] * xi[6]
   + b[13] * xi[7] + b[14] * xi[8] + b[15] * xi[9] + b[21] * xi[10]
   + b[22] * xi[11] + b[23] * xi[12] + b[24] * xi[13] + b[25] * xi[14]
   + b[26] * xi[15] + b[27] * xi[16] + b[28] * xi[17] + b[29] * xi[18]
   + b[30] * xi[19] + b[35] * xi[20] + b[36] * xi[21] + b[37] * xi[22]
   + b[38] * xi[23] + b[39] * xi[24] + b[40] * xi[25] + b[41] * xi[26]
   + b[42] * xi[27] + b[43] * xi[28] + b[44] * xi[29] + b[48] * xi[30]
   + b[49] * xi[31] + b[50] * xi[32] + b[51] * xi[33] + b[52] * xi[34]
   + b[53] * xi[35] + b[54] * xi[36] + b[55] * xi[37] + b[56] * xi[38]
   + b[57] * xi[39] + b[60] * xi[40] + b[61] * xi[41] + b[62] * xi[42]
   + b[63] * xi[43] + b[64] * xi[44] + b[65] * xi[45] + b[66] * xi[46]
   + b[67] * xi[47] + b[68] * xi[48] + b[69] * xi[49] + b[71] * xi[50]
   + b[72] * xi[51] + b[73] * xi[52] + b[74] * xi[53] + b[75] * xi[54]
   + b[76] * xi[55] + b[77] * xi[56] + b[78] * xi[57] + b[79] * xi[58]
   + b[80] * xi[59] + b[81] * xi[60] + b[82] * xi[61] + b[83] * xi[62]
   + b[84] * xi[63] + b[85] * xi[64] + b[86] * xi[65] + b[87] * xi[66]
   + b[88] * xi[67] + b[89] * xi[68] + b[90] * xi[69] + b[91] * xi[70]
   + b[92] * xi[71] + b[93] * xi[72] + b[94] * xi[73] + b[95] * xi[74]
   + b[96] * xi[75] + b[97] * xi[76] + b[98] * xi[77] + b[99] * xi[78]
   + b[100] * xi[79] + b[101] * xi[80] + b[102] * xi[81] + b[103] * xi[82]
   + b[104] * xi[83] + b[105] * xi[84] + b[106] * xi[85] + b[107] * xi[86]
   + b[108] * xi[87] + b[109] * xi[88] + b[110] * xi[89] + b[111] * xi[90]
   + b[112] * xi[91] + b[113] * xi[92] + b[114] * xi[93] + b[115] * xi[94]
   + b[116] * xi[95] + b[117] * xi[96] + b[118] * xi[97] + b[119] * xi[98]
   + b[120] * xi[99] ] = 0
 ybar_11: - yb[11] + [ 11 m[7] * xi[0] + 11 m[8] * xi[1] + 11 m[9] * xi[2]
   + 11 m[10] * xi[3] + 11 m[11] * xi[4] + 11 m[12] * xi[5]
   + 11 m[13] * xi[6] + 11 m[14] * xi[7] + 11 m[15] * xi[8]
   + 11 m[22] * xi[9] + 11 m[23] * xi[10] + 11 m[24] * xi[11]
   + 11 m[25] * xi[12] + 11 m[26] * xi[13] + 11 m[27] * xi[14]
   + 11 m[28] * xi[15] + 11 m[29] * xi[16] + 11 m[30] * xi[17]
   + 11 m[36] * xi[18] + 11 m[37] * xi[19] + 11 m[38] * xi[20]
   + 11 m[39] * xi[21] + 11 m[40] * xi[22] + 11 m[41] * xi[23]
   + 11 m[42] * xi[24] + 11 m[43] * xi[25] + 11 m[44] * xi[26]
   + 11 m[49] * xi[27] + 11 m[50] * xi[28] + 11 m[51] * xi[29]
   + 11 m[52] * xi[30] + 11 m[53] * xi[31] + 11 m[54] * xi[32]
   + 11 m[55] * xi[33] + 11 m[56] * xi[34] + 11 m[57] * xi[35]
   + 11 m[61] * xi[36] + 11 m[62] * xi[37] + 11 m[63] * xi[38]
   + 11 m[64] * xi[39] + 11 m[65] * xi[40] + 11 m[66] * xi[41]
   + 11 m[67] * xi[42] + 11 m[68] * xi[43] + 11 m[69] * xi[44]
   + 11 m[72] * xi[45] + 11 m[73] * xi[46] + 11 m[74] * xi[47]
   + 11 m[75] * xi[48] + 11 m[76] * xi[49] + 11 m[77] * xi[50]
   + 11 m[78] * xi[51] + 11 m[79] * xi[52] + 11 m[80] * xi[53]
   + 11 m[82] * xi[54] + 11 m[83] * xi[55] + 11 m[84] * xi[56]
   + 11 m[85] * xi[57] + 11 m[86] * xi[58] + 11 m[87] * xi[59]
   + 11 m[88] * xi[60] + 11 m[89] * xi[61] + 11 m[90] * xi[62]
   + 11 m[91] * xi[63] + 11 m[92] * xi[64] + 11 m[93] * xi[65]
   + 11 m[94] * xi[66] + 11 m[95] * xi[67] + 11 m[96] * xi[68]
   + 11 m[97] * xi[69] + 11 m[98] * xi[70] + 11 m[99] * xi[71]
   + 11 m[100] * xi[72] + 11 m[101] * xi[73] + 11 m[102] * xi[74]
   + 11 m[103] * xi[75] + 11 m[104] * xi[76] + 11 m[105] * xi[77]
   + 11 m[106] * xi[78] + 11 m[107] * xi[79] + 11 m[108] * xi[80]
   + 11 m[109] * xi[81] + 11 m[110] * xi[82] + 11 m[111] * xi[83]
   + 11 m[112] * xi[84] + 11 m[113] * xi[85] + 11 m[114] * xi[86]
   + 11 m[115] * xi[87] + 11 m[116] * xi[88] + 11 m[117] * xi[89]
   + 11 m[118] * xi[90] + 11 m[119] * xi[91] + 11 m[120] * xi[92]
   + 11 m[121] * xi[93] + 11 m[122] * xi[94] + 11 m[123] * xi[95]
   + 11 m[124] * xi[96] + 11 m[125] * xi[97] + b[7] * xi[0] + b[8] * xi[1]
   + b[9] * xi[2] + b[10] * xi[3] + b[11] * xi[4] + b[12] * xi[5]
   + b[13] * xi[6] + b[14] * xi[7] + b[15] * xi[8] + b[22] * xi[9]
   + b[23] * xi[10] + b[24] * xi[11] + b[25] * xi[12] + b[26] * xi[13]
   + b[27] * xi[14] + b[28] * xi[15] + b[29] * xi[16] + b[30] * xi[17]
   + b[36] * xi[18] + b[37] * xi[19] + b[38] * xi[20] + b[39] * xi[21]
   + b[40] * xi[22] + b[41] * xi[23] + b[42] * xi[24] + b[43] * xi[25]
   + b[44] * xi[26] + b[49] * xi[27] + b[50] * xi[28] + b[51] * xi[29]
   + b[52] * xi[30] + b[53] * xi[31] + b[54] * xi[32] + b[55] * xi[33]
   + b[56] * xi[34] + b[57] * xi[35] + b[61] * xi[36] + b[62] * xi[37]
   + b[63] * xi[38] + b[64] * xi[39] + b[65] * xi[40] + b[66] * xi[41]
   + b[67] * xi[42] + b[68] * xi[43] + b[69] * xi[44] + b[72] * xi[45]
   + b[73] * xi[46] + b[74] * xi[47] + b[75] * xi[48] + b[76] * xi[49]
   + b[77] * xi[50] + b[78] * xi[51] + b[79] * xi[52] + b[80] * xi[53]
   + b[82] * xi[54] + b[83] * xi[55] + b[84] * xi[56] + b[85] * xi[57]
   + b[86] * xi[58] + b[87] * xi[59] + b[88] * xi[60] + b[89] * xi[61]
   + b[90] * xi[62] + b[91] * xi[63] + b[92] * xi[64] + b[93] * xi[65]
   + b[94] * xi[66] + b[95] * xi[67] + b[96] * xi[68] + b[97] * xi[69]
   + b[98] * xi[70] + b[99] * xi[71] + b[100] * xi[72] + b[101] * xi[73]
   + b[102] * xi[74] + b[103] * xi[75] + b[104] * xi[76] + b[105] * xi[77]
   + b[106] * xi[78] + b[107] * xi[79] + b[108] * xi[80] + b[109] * xi[81]
   + b[110] * xi[82] + b[111] * xi[83] + b[112] * xi[84] + b[113] * xi[85]
   + b[114] * xi[86] + b[115] * xi[87] + b[116] * xi[88] + b[117] * xi[89]
   + b[118] * xi[90] + b[119] * xi[91] + b[120] * xi[92] + b[121] * xi[93]
   + b[122] * xi[94] + b[123] * xi[95] + b[124] * xi[96] + b[125] * xi[97]
   ] = 0
 ybar_12: - yb[12] + [ 12 m[8] * xi[0] + 12 m[9] * xi[1] + 12 m[10] * xi[2]
   + 12 m[11] * xi[3] + 12 m[12] * xi[4] + 12 m[13] * xi[5]
   + 12 m[14] * xi[6] + 12 m[15] * xi[7] + 12 m[23] * xi[8]
   + 12 m[24] * xi[9] + 12 m[25] * xi[10] + 12 m[26] * xi[11]
   + 12 m[27] * xi[12] + 12 m[28] * xi[13] + 12 m[29] * xi[14]
   + 12 m[30] * xi[15] + 12 m[37] * xi[16] + 12 m[38] * xi[17]
   + 12 m[39] * xi[18] + 12 m[40] * xi[19] + 12 m[41] * xi[20]
   + 12 m[42] * xi[21] + 12 m[43] * xi[22] + 12 m[44] * xi[23]
   + 12 m[50] * xi[24] + 12 m[51] * xi[25] + 12 m[52] * xi[26]
   + 12 m[53] * xi[27] + 12 m[54] * xi[28] + 12 m[55] * xi[29]
   + 12 m[56] * xi[30] + 12 m[57] * xi[31] + 12 m[62] * xi[32]
   + 12 m[63] * xi[33] + 12 m[64] * xi[34] + 12 m[65] * xi[35]
   + 12 m[66] * xi[36] + 12 m[67] * xi[37] + 12 m[68] * xi[38]
   + 12 m[69] * xi[39] + 12 m[73] * xi[40] + 12 m[74] * xi[41]
   + 12 m[75] * xi[42] + 12 m[76] * xi[43] + 12 m[77] * xi[44]
   + 12 m[78] * xi[45] + 12 m[79] * xi[46] + 12 m[80] * xi[47]
   + 12 m[83] * xi[48] + 12 m[84] * xi[49] + 12 m[85] * xi[50]
   + 12 m[86] * xi[51] + 12 m[87] * xi[52] + 12 m[88] * xi[53]
   + 12 m[89] * xi[54] + 12 m[90] * xi[55] + 12 m[92] * xi[56]
   + 12 m[93] * xi[57] + 12 m[94] * xi[58] + 12 m[95] * xi[59]
   + 12 m[96] * xi[60] + 12 m[97] * xi[61] + 12 m[98] * xi[62]
   + 12 m[99] * xi[63] + 12 m[100] * xi[64] + 12 m[101] * xi[65]
   + 12 m[102] * xi[66] + 12 m[103] * xi[67] + 12 m[104] * xi[68]
   + 12 m[105] * xi[69] + 12 m[106] * xi[70] + 12 m[107] * xi[71]
   + 12 m[108] * xi[72] + 12 m[109] * xi[73] + 12 m[110] * xi[74]
   + 12 m[111] * xi[75] + 12 m[112] * xi[76] + 12 m[113] * xi[77]
   + 12 m[114] * xi[78] + 12 m[115] * xi[79] + 12 m[116] * xi[80]
   + 12 m[117] * xi[81] + 12 m[118] * xi[82] + 12 m[119] * xi[83]
   + 12 m[120] * xi[84] + 12 m[121] * xi[85] + 12 m[122] * xi[86]
   + 12 m[123] * xi[87] + 12 m[124] * xi[88] + 12 m[125] * xi[89]
   + 12 m[126] * xi[90] + 12 m[127] * xi[91] + 12 m[128] * xi[92]
   + 12 m[129] * xi[93] + b[8] * xi[0] + b[9] * xi[1] + b[10] * xi[2]
   + b[11] * xi[3] + b[12] * xi[4] + b[13] * xi[5] + b[14] * xi[6]
   + b[15] * xi[7] + b[23] * xi[8] + b[24] * xi[9] + b[25] * xi[10]
   + b[26] * xi[11] + b[27] * xi[12] + b[28] * xi[13] + b[29] * xi[14]
   + b[30] * xi[15] + b[37] * xi[16] + b[38] * xi[17] + b[39] * xi[18]
   + b[40] * xi[19] + b[41] * xi[20] + b[42] * xi[21] + b[43] * xi[22]
   + b[44] * xi[23] + b[50] * xi[24] + b[51] * xi[25] + b[52] * xi[26]
   + b[53] * xi[27] + b[54] * xi[28] + b[55] * xi[29] + b[56] * xi[30]
   + b[57] * xi[31] + b[62] * xi[32] + b[63] * xi[33] + b[64] * xi[34]
   + b[65] * xi[35] + b[66] * xi[36] + b[67] * xi[37] + b[68] * xi[38]
   + b[69] * xi[39] + b[73] * xi[40] + b[74] * xi[41] + b[75] * xi[42]
   + b[76] * xi[43] + b[77] * xi[44] + b[78] * xi[45] + b[79] * xi[46]
   + b[80] * xi[47] + b[83] * xi[48] + b[84] * xi[49] + b[85] * xi[50]
   + b[86] * xi[51] + b[87] * xi[52] + b[88] * xi[53] + b[89] * xi[54]
   + b[90] * xi[55] + b[92] * xi[56] + b[93] * xi[57] + b[94] * xi[58]
   + b[95] * xi[59] + b[96] * xi[60] + b[97] * xi[61] + b[98] * xi[62]
   + b[99] * xi[63] + b[100] * xi[64] + b[101] * xi[65] + b[102] * xi[66]
   + b[103] * xi[67] + b[104] * xi[68] + b[105] * xi[69] + b[106] * xi[70]
   + b[107] * xi[71] + b[108] * xi[72] + b[109] * xi[73] + b[110] * xi[74]
   + b[111] * xi[75] + b[112] * xi[76] + b[113] * xi[77] + b[114] * xi[78]
   + b[115] * xi[79] + b[116] * xi[80] + b[117] * xi[81] + b[118] * xi[82]
   + b[119] * xi[83] + b[120] * xi[84] + b[121] * xi[85] + b[122] * xi[86]
   + b[123] * xi[87] + b[124] * xi[88] + b[125] * xi[89] + b[126] * xi[90]
   + b[127] * xi[91] + b[128] * xi[92] + b[129] * xi[93] ] = 0
 ybar_13: - yb[13] + [ 13 m[9] * xi[0] + 13 m[10] * xi[1]
   + 13 m[11] * xi[2] + 13 m[12] * xi[3] + 13 m[13] * xi[4]
   + 13 m[14] * xi[5] + 13 m[15] * xi[6] + 13 m[24] * xi[7]
   + 13 m[25] * xi[8] + 13 m[26] * xi[9] + 13 m[27] * xi[10]
   + 13 m[28] * xi[11] + 13 m[29] * xi[12] + 13 m[30] * xi[13]
   + 13 m[38] * xi[14] + 13 m[39] * xi[15] + 13 m[40] * xi[16]
   + 13 m[41] * xi[17] + 13 m[42] * xi[18] + 13 m[43] * xi[19]
   + 13 m[44] * xi[20] + 13 m[51] * xi[21] + 13 m[52] * xi[22]
   + 13 m[53] * xi[23] + 13 m[54] * xi[24] + 13 m[55] * xi[25]
   + 13 m[56] * xi[26] + 13 m[57] * xi[27] + 13 m[63] * xi[28]
   + 13 m[64] * xi[29] + 13 m[65] * xi[30] + 13 m[66] * xi[31]
   + 13 m[67] * xi[32] + 13 m[68] * xi[33] + 13 m[69] * xi[34]
   + 13 m[74] * xi[35] + 13 m[75] * xi[36] + 13 m[76] * xi[37]
   + 13 m[77] * xi[38] + 13 m[78] * xi[39] + 13 m[79] * xi[40]
   + 13 m[80] * xi[41] + 13 m[84] * xi[42] + 13 m[85] * xi[43]
   + 13 m[86] * xi[44] + 13 m[87] * xi[45] + 13 m[88] * xi[46]
   + 13 m[89] * xi[47] + 13 m[90] * xi[48] + 13 m[93] * xi[49]
   + 13 m[94] * xi[50] + 13 m[95] * xi[51] + 13 m[96] * xi[52]
   + 13 m[97] * xi[53] + 13 m[98] * xi[54] + 13 m[99] * xi[55]
   + 13 m[101] * xi[56] + 13 m[102] * xi[57] + 13 m[103] * xi[58]
   + 13 m[104] * xi[59] + 13 m[105] * xi[60] + 13 m[106] * xi[61]
   + 13 m[107] * xi[62] + 13 m[108] * xi[63] + 13 m[109] * xi[64]
   + 13 m[110] * xi[65] + 13 m[111] * xi[66] + 13 m[112] * xi[67]
   + 13 m[113] * xi[68] + 13 m[114] * xi[69] + 13 m[115] * xi[70]
   + 13 m[116] * xi[71] + 13 m[117] * xi[72] + 13 m[118] * xi[73]
   + 13 m[119] * xi[74] + 13 m[120] * xi[75] + 13 m[121] * xi[76]
   + 13 m[122] * xi[77] + 13 m[123] * xi[78] + 13 m[124] * xi[79]
   + 13 m[125] * xi[80] + 13 m[126] * xi[81] + 13 m[127] * xi[82]
   + 13 m[128] * xi[83] + 13 m[129] * xi[84] + 13 m[130] * xi[85]
   + 13 m[131] * xi[86] + 13 m[132] * xi[87] + b[9] * xi[0] + b[10] * xi[1]
   + b[11] * xi[2] + b[12] * xi[3] + b[13] * xi[4] + b[14] * xi[5]
   + b[15] * xi[6] + b[24] * xi[7] + b[25] * xi[8] + b[26] * xi[9]
   + b[27] * xi[10] + b[28] * xi[11] + b[29] * xi[12] + b[30] * xi[13]
   + b[38] * xi[14] + b[39] * xi[15] + b[40] * xi[16] + b[41] * xi[17]
   + b[42] * xi[18] + b[43] * xi[19] + b[44] * xi[20] + b[51] * xi[21]
   + b[52] * xi[22] + b[53] * xi[23] + b[54] * xi[24] + b[55] * xi[25]
   + b[56] * xi[26] + b[57] * xi[27] + b[63] * xi[28] + b[64] * xi[29]
   + b[65] * xi[30] + b[66] * xi[31] + b[67] * xi[32] + b[68] * xi[33]
   + b[69] * xi[34] + b[74] * xi[35] + b[75] * xi[36] + b[76] * xi[37]
   + b[77] * xi[38] + b[78] * xi[39] + b[79] * xi[40] + b[80] * xi[41]
   + b[84] * xi[42] + b[85] * xi[43] + b[86] * xi[44] + b[87] * xi[45]
   + b[88] * xi[46] + b[89] * xi[47] + b[90] * xi[48] + b[93] * xi[49]
   + b[94] * xi[50] + b[95] * xi[51] + b[96] * xi[52] + b[97] * xi[53]
   + b[98] * xi[54] + b[99] * xi[55] + b[101] * xi[56] + b[102] * xi[57]
   + b[103] * xi[58] + b[104] * xi[59] + b[105] * xi[60] + b[106] * xi[61]
   + b[107] * xi[62] + b[108] * xi[63] + b[109] * xi[64] + b[110] * xi[65]
   + b[111] * xi[66] + b[112] * xi[67] + b[113] * xi[68] + b[114] * xi[69]
   + b[115] * xi[70] + b[116] * xi[71] + b[117] * xi[72] + b[118] * xi[73]
   + b[119] * xi[74] + b[120] * xi[75] + b[121] * xi[76] + b[122] * xi[77]
   + b[123] * xi[78] + b[124] * xi[79] + b[125] * xi[80] + b[126] * xi[81]
   + b[127] * xi[82] + b[128] * xi[83] + b[129] * xi[84] + b[130] * xi[85]
   + b[131] * xi[86] + b[132] * xi[87] ] = 0
 ybar_14: - yb[14] + [ 14 m[10] * xi[0] + 14 m[11] * xi[1]
   + 14 m[12] * xi[2] + 14 m[13] * xi[3] + 14 m[14] * xi[4]
   + 14 m[15] * xi[5] + 14 m[25] * xi[6] + 14 m[26] * xi[7]
   + 14 m[27] * xi[8] + 14 m[28] * xi[9] + 14 m[29] * xi[10]
   + 14 m[30] * xi[11] + 14 m[39] * xi[12] + 14 m[40] * xi[13]
   + 14 m[41] * xi[14] + 14 m[42] * xi[15] + 14 m[43] * xi[16]
   + 14 m[44] * xi[17] + 14 m[52] * xi[18] + 14 m[53] * xi[19]
   + 14 m[54] * xi[20] + 14 m[55] * xi[21] + 14 m[56] * xi[22]
   + 14 m[57] * xi[23] + 14 m[64] * xi[24] + 14 m[65] * xi[25]
   + 14 m[66] * xi[26] + 14 m[67] * xi[27] + 14 m[68] * xi[28]
   + 14 m[69] * xi[29] + 14 m[75] * xi[30] + 14 m[76] * xi[31]
   + 14 m[77] * xi[32] + 14 m[78] * xi[33] + 14 m[79] * xi[34]
   + 14 m[80] * xi[35] + 14 m[85] * xi[36] + 14 m[86] * xi[37]
   + 14 m[87] * xi[38] + 14 m[88] * xi[39] + 14 m[89] * xi[40]
   + 14 m[90] * xi[41] + 14 m[94] * xi[42] + 14 m[95] * xi[43]
   + 14 m[96] * xi[44] + 14 m[97] * xi[45] + 14 m[98] * xi[46]
   + 14 m[99] * xi[47] + 14 m[102] * xi[48] + 14 m[103] * xi[49]
   + 14 m[104] * xi[50] + 14 m[105] * xi[51] + 14 m[106] * xi[52]
   + 14 m[107] * xi[53] + 14 m[109] * xi[54] + 14 m[110] * xi[55]
   + 14 m[111] * xi[56] + 14 m[112] * xi[57] + 14 m[113] * xi[58]
   + 14 m[114] * xi[59] + 14 m[115] * xi[60] + 14 m[116] * xi[61]
   + 14 m[117] * xi[62] + 14 m[118] * xi[63] + 14 m[119] * xi[64]
   + 14 m[120] * xi[65] + 14 m[121] * xi[66] + 14 m[122] * xi[67]
   + 14 m[123] * xi[68] + 14 m[124] * xi[69] + 14 m[125] * xi[70]
   + 14 m[126] * xi[71] + 14 m[127] * xi[72] + 14 m[128] * xi[73]
   + 14 m[129] * xi[74] + 14 m[130] * xi[75] + 14 m[131] * xi[76]
   + 14 m[132] * xi[77] + 14 m[133] * xi[78] + 14 m[134] * xi[79]
   + b[10] * xi[0] + b[11] * xi[1] + b[12] * xi[2] + b[13] * xi[3]
   + b[14] * xi[4] + b[15] * xi[5] + b[25] * xi[6] + b[26] * xi[7]
   + b[27] * xi[8] + b[28] * xi[9] + b[29] * xi[10] + b[30] * xi[11]
   + b[39] * xi[12] + b[40] * xi[13] + b[41] * xi[14] + b[42] * xi[15]
   + b[43] * xi[16] + b[44] * xi[17] + b[52] * xi[18] + b[53] * xi[19]
   + b[54] * xi[20] + b[55] * xi[21] + b[56] * xi[22] + b[57] * xi[23]
   + b[64] * xi[24] + b[65] * xi[25] + b[66] * xi[26] + b[67] * xi[27]
   + b[68] * xi[28] + b[69] * xi[29] + b[75] * xi[30] + b[76] * xi[31]
   + b[77] * xi[32] + b[78] * xi[33] + b[79] * xi[34] + b[80] * xi[35]
   + b[85] * xi[36] + b[86] * xi[37] + b[87] * xi[38] + b[88] * xi[39]
   + b[89] * xi[40] + b[90] * xi[41] + b[94] * xi[42] + b[95] * xi[43]
   + b[96] * xi[44] + b[97] * xi[45] + b[98] * xi[46] + b[99] * xi[47]
   + b[102] * xi[48] + b[103] * xi[49] + b[104] * xi[50] + b[105] * xi[51]
   + b[106] * xi[52] + b[107] * xi[53] + b[109] * xi[54] + b[110] * xi[55]
   + b[111] * xi[56] + b[112] * xi[57] + b[113] * xi[58] + b[114] * xi[59]
   + b[115] * xi[60] + b[116] * xi[61] + b[117] * xi[62] + b[118] * xi[63]
   + b[119] * xi[64] + b[120] * xi[65] + b[121] * xi[66] + b[122] * xi[67]
   + b[123] * xi[68] + b[124] * xi[69] + b[125] * xi[70] + b[126] * xi[71]
   + b[127] * xi[72] + b[128] * xi[73] + b[129] * xi[74] + b[130] * xi[75]
   + b[131] * xi[76] + b[132] * xi[77] + b[133] * xi[78] + b[134] * xi[79]
   ] = 0
 ybar_15: - yb[15] + [ 15 m[11] * xi[0] + 15 m[12] * xi[1]
   + 15 m[13] * xi[2] + 15 m[14] * xi[3] + 15 m[15] * xi[4]
   + 15 m[26] * xi[5] + 15 m[27] * xi[6] + 15 m[28] * xi[7]
   + 15 m[29] * xi[8] + 15 m[30] * xi[9] + 15 m[40] * xi[10]
   + 15 m[41] * xi[11] + 15 m[42] * xi[12] + 15 m[43] * xi[13]
   + 15 m[44] * xi[14] + 15 m[53] * xi[15] + 15 m[54] * xi[16]
   + 15 m[55] * xi[17] + 15 m[56] * xi[18] + 15 m[57] * xi[19]
   + 15 m[65] * xi[20] + 15 m[66] * xi[21] + 15 m[67] * xi[22]
   + 15 m[68] * xi[23] + 15 m[69] * xi[24] + 15 m[76] * xi[25]
   + 15 m[77] * xi[26] + 15 m[78] * xi[27] + 15 m[79] * xi[28]
   + 15 m[80] * xi[29] + 15 m[86] * xi[30] + 15 m[87] * xi[31]
   + 15 m[88] * xi[32] + 15 m[89] * xi[33] + 15 m[90] * xi[34]
   + 15 m[95] * xi[35] + 15 m[96] * xi[36] + 15 m[97] * xi[37]
   + 15 m[98] * xi[38] + 15 m[99] * xi[39] + 15 m[103] * xi[40]
   + 15 m[104] * xi[41] + 15 m[105] * xi[42] + 15 m[106] * xi[43]
   + 15 m[107] * xi[44] + 15 m[110] * xi[45] + 15 m[111] * xi[46]
   + 15 m[112] * xi[47] + 15 m[113] * xi[48] + 15 m[114] * xi[49]
   + 15 m[116] * xi[50] + 15 m[117] * xi[51] + 15 m[118] * xi[52]
   + 15 m[119] * xi[53] + 15 m[120] * xi[54] + 15 m[121] * xi[55]
   + 15 m[122] * xi[56] + 15 m[123] * xi[57] + 15 m[124] * xi[58]
   + 15 m[125] * xi[59] + 15 m[126] * xi[60] + 15 m[127] * xi[61]
   + 15 m[128] * xi[62] + 15 m[129] * xi[63] + 15 m[130] * xi[64]
   + 15 m[131] * xi[65] + 15 m[132] * xi[66] + 15 m[133] * xi[67]
   + 15 m[134] * xi[68] + 15 m[135] * xi[69] + b[11] * xi[0]
   + b[12] * xi[1] + b[13] * xi[2] + b[14] * xi[3] + b[15] * xi[4]
   + b[26] * xi[5] + b[27] * xi[6] + b[28] * xi[7] + b[29] * xi[8]
   + b[30] * xi[9] + b[40] * xi[10] + b[41] * xi[11] + b[42] * xi[12]
   + b[43] * xi[13] + b[44] * xi[14] + b[53] * xi[15] + b[54] * xi[16]
   + b[55] * xi[17] + b[56] * xi[18] + b[57] * xi[19] + b[65] * xi[20]
   + b[66] * xi[21] + b[67] * xi[22] + b[68] * xi[23] + b[69] * xi[24]
   + b[76] * xi[25] + b[77] * xi[26] + b[78] * xi[27] + b[79] * xi[28]
   + b[80] * xi[29] + b[86] * xi[30] + b[87] * xi[31] + b[88] * xi[32]
   + b[89] * xi[33] + b[90] * xi[34] + b[95] * xi[35] + b[96] * xi[36]
   + b[97] * xi[37] + b[98] * xi[38] + b[99] * xi[39] + b[103] * xi[40]
   + b[104] * xi[41] + b[105] * xi[42] + b[106] * xi[43] + b[107] * xi[44]
   + b[110] * xi[45] + b[111] * xi[46] + b[112] * xi[47] + b[113] * xi[48]
   + b[114] * xi[49] + b[116] * xi[50] + b[117] * xi[51] + b[118] * xi[52]
   + b[119] * xi[53] + b[120] * xi[54] + b[121] * xi[55] + b[122] * xi[56]
   + b[123] * xi[57] + b[124] * xi[58] + b[125] * xi[59] + b[126] * xi[60]
   + b[127] * xi[61] + b[128] * xi[62] + b[129] * xi[63] + b[130] * xi[64]
   + b[131] * xi[65] + b[132] * xi[66] + b[133] * xi[67] + b[134] * xi[68]
   + b[135] * xi[69] ] = 0
 ybar_16: - yb[16] + [ 16 m[12] * xi[0] + 16 m[13] * xi[1]
   + 16 m[14] * xi[2] + 16 m[15] * xi[3] + 16 m[27] * xi[4]
   + 16 m[28] * xi[5] + 16 m[29] * xi[6] + 16 m[30] * xi[7]
   + 16 m[41] * xi[8] + 16 m[42] * xi[9] + 16 m[43] * xi[10]
   + 16 m[44] * xi[11] + 16 m[54] * xi[12] + 16 m[55] * xi[13]
   + 16 m[56] * xi[14] + 16 m[57] * xi[15] + 16 m[66] * xi[16]
   + 16 m[67] * xi[17] + 16 m[68] * xi[18] + 16 m[69] * xi[19]
   + 16 m[77] * xi[20] + 16 m[78] * xi[21] + 16 m[79] * xi[22]
   + 16 m[80] * xi[23] + 16 m[87] * xi[24] + 16 m[88] * xi[25]
   + 16 m[89] * xi[26] + 16 m[90] * xi[27] + 16 m[96] * xi[28]
   + 16 m[97] * xi[29] + 16 m[98] * xi[30] + 16 m[99] * xi[31]
   + 16 m[104] * xi[32] + 16 m[105] * xi[33] + 16 m[106] * xi[34]
   + 16 m[107] * xi[35] + 16 m[111] * xi[36] + 16 m[112] * xi[37]
   + 16 m[113] * xi[38] + 16 m[114] * xi[39] + 16 m[117] * xi[40]
   + 16 m[118] * xi[41] + 16 m[119] * xi[42] + 16 m[120] * xi[43]
   + 16 m[122] * xi[44] + 16 m[123] * xi[45] + 16 m[124] * xi[46]
   + 16 m[125] * xi[47] + 16 m[126] * xi[48] + 16 m[127] * xi[49]
   + 16 m[128] * xi[50] + 16 m[129] * xi[51] + 16 m[130] * xi[52]
   + 16 m[131] * xi[53] + 16 m[132] * xi[54] + 16 m[133] * xi[55]
   + 16 m[134] * xi[56] + 16 m[135] * xi[57] + b[12] * xi[0]
   + b[13] * xi[1] + b[14] * xi[2] + b[15] * xi[3] + b[27] * xi[4]
   + b[28] * xi[5] + b[29] * xi[6] + b[30] * xi[7] + b[41] * xi[8]
   + b[42] * xi[9] + b[43] * xi[10] + b[44] * xi[11] + b[54] * xi[12]
   + b[55] * xi[13] + b[56] * xi[14] + b[57] * xi[15] + b[66] * xi[16]
   + b[67] * xi[17] + b[68] * xi[18] + b[69] * xi[19] + b[77] * xi[20]
   + b[78] * xi[21] + b[79] * xi[22] + b[80] * xi[23] + b[87] * xi[24]
   + b[88] * xi[25] + b[89] * xi[26] + b[90] * xi[27] + b[96] * xi[28]
   + b[97] * xi[29] + b[98] * xi[30] + b[99] * xi[31] + b[104] * xi[32]
   + b[105] * xi[33] + b[106] * xi[34] + b[107] * xi[35] + b[111] * xi[36]
   + b[112] * xi[37] + b[113] * xi[38] + b[114] * xi[39] + b[117] * xi[40]
   + b[118] * xi[41] + b[119] * xi[42] + b[120] * xi[43] + b[122] * xi[44]
   + b[123] * xi[45] + b[124] * xi[46] + b[125] * xi[47] + b[126] * xi[48]
   + b[127] * xi[49] + b[128] * xi[50] + b[129] * xi[51] + b[130] * xi[52]
   + b[131] * xi[53] + b[132] * xi[54] + b[133] * xi[55] + b[134] * xi[56]
   + b[135] * xi[57] ] = 0
 ybar_17: - yb[17] + [ 17 m[13] * xi[0] + 17 m[14] * xi[1]
   + 17 m[15] * xi[2] + 17 m[28] * xi[3] + 17 m[29] * xi[4]
   + 17 m[30] * xi[5] + 17 m[42] * xi[6] + 17 m[43] * xi[7]
   + 17 m[44] * xi[8] + 17 m[55] * xi[9] + 17 m[56] * xi[10]
   + 17 m[57] * xi[11] + 17 m[67] * xi[12] + 17 m[68] * xi[13]
   + 17 m[69] * xi[14] + 17 m[78] * xi[15] + 17 m[79] * xi[16]
   + 17 m[80] * xi[17] + 17 m[88] * xi[18] + 17 m[89] * xi[19]
   + 17 m[90] * xi[20] + 17 m[97] * xi[21] + 17 m[98] * xi[22]
   + 17 m[99] * xi[23] + 17 m[105] * xi[24] + 17 m[106] * xi[25]
   + 17 m[107] * xi[26] + 17 m[112] * xi[27] + 17 m[113] * xi[28]
   + 17 m[114] * xi[29] + 17 m[118] * xi[30] + 17 m[119] * xi[31]
   + 17 m[120] * xi[32] + 17 m[123] * xi[33] + 17 m[124] * xi[34]
   + 17 m[125] * xi[35] + 17 m[127] * xi[36] + 17 m[128] * xi[37]
   + 17 m[129] * xi[38] + 17 m[130] * xi[39] + 17 m[131] * xi[40]
   + 17 m[132] * xi[41] + 17 m[133] * xi[42] + 17 m[134] * xi[43]
   + 17 m[135] * xi[44] + b[13] * xi[0] + b[14] * xi[1] + b[15] * xi[2]
   + b[28] * xi[3] + b[29] * xi[4] + b[30] * xi[5] + b[42] * xi[6]
   + b[43] * xi[7] + b[44] * xi[8] + b[55] * xi[9] + b[56] * xi[10]
   + b[57] * xi[11] + b[67] * xi[12] + b[68] * xi[13] + b[69] * xi[14]
   + b[78] * xi[15] + b[79] * xi[16] + b[80] * xi[17] + b[88] * xi[18]
   + b[89] * xi[19] + b[90] * xi[20] + b[97] * xi[21] + b[98] * xi[22]
   + b[99] * xi[23] + b[105] * xi[24] + b[106] * xi[25] + b[107] * xi[26]
   + b[112] * xi[27] + b[113] * xi[28] + b[114] * xi[29] + b[118] * xi[30]
   + b[119] * xi[31] + b[120] * xi[32] + b[123] * xi[33] + b[124] * xi[34]
   + b[125] * xi[35] + b[127] * xi[36] + b[128] * xi[37] + b[129] * xi[38]
   + b[130] * xi[39] + b[131] * xi[40] + b[132] * xi[41] + b[133] * xi[42]
   + b[134] * xi[43] + b[135] * xi[44] ] = 0
 ybar_18: - yb[18] + [ 18 m[14] * xi[0] + 18 m[15] * xi[1]
   + 18 m[29] * xi[2] + 18 m[30] * xi[3] + 18 m[43] * xi[4]
   + 18 m[44] * xi[5] + 18 m[56] * xi[6] + 18 m[57] * xi[7]
   + 18 m[68] * xi[8] + 18 m[69] * xi[9] + 18 m[79] * xi[10]
   + 18 m[80] * xi[11] + 18 m[89] * xi[12] + 18 m[90] * xi[13]
   + 18 m[98] * xi[14] + 18 m[99] * xi[15] + 18 m[106] * xi[16]
   + 18 m[107] * xi[17] + 18 m[113] * xi[18] + 18 m[114] * xi[19]
   + 18 m[119] * xi[20] + 18 m[120] * xi[21] + 18 m[124] * xi[22]
   + 18 m[125] * xi[23] + 18 m[128] * xi[24] + 18 m[129] * xi[25]
   + 18 m[131] * xi[26] + 18 m[132] * xi[27] + 18 m[133] * xi[28]
   + 18 m[134] * xi[29] + 18 m[135] * xi[30] + b[14] * xi[0]
   + b[15] * xi[1] + b[29] * xi[2] + b[30] * xi[3] + b[43] * xi[4]
   + b[44] * xi[5] + b[56] * xi[6] + b[57] * xi[7] + b[68] * xi[8]
   + b[69] * xi[9] + b[79] * xi[10] + b[80] * xi[11] + b[89] * xi[12]
   + b[90] * xi[13] + b[98] * xi[14] + b[99] * xi[15] + b[106] * xi[16]
   + b[107] * xi[17] + b[113] * xi[18] + b[114] * xi[19] + b[119] * xi[20]
   + b[120] * xi[21] + b[124] * xi[22] + b[125] * xi[23] + b[128] * xi[24]
   + b[129] * xi[25] + b[131] * xi[26] + b[132] * xi[27] + b[133] * xi[28]
   + b[134] * xi[29] + b[135] * xi[30] ] = 0
Bounds
Binaries
 xi[0] xi[1] xi[2] xi[3] xi[4] xi[5] xi[6] xi[7] xi[8] xi[9] xi[10] xi[11]
 xi[12] xi[13] xi[14] xi[15] xi[16] xi[17] xi[18] xi[19] xi[20] xi[21]
 xi[22] xi[23] xi[24] xi[25] xi[26] xi[27] xi[28] xi[29] xi[30] xi[31]
 xi[32] xi[33] xi[34] xi[35] xi[36] xi[37] xi[38] xi[39] xi[40] xi[41]
 xi[42] xi[43] xi[44] xi[45] xi[46] xi[47] xi[48] xi[49] xi[50] xi[51]
 xi[52] xi[53] xi[54] xi[55] xi[56] xi[57] xi[58] xi[59] xi[60] xi[61]
 xi[62] xi[63] xi[64] xi[65] xi[66] xi[67] xi[68] xi[69] xi[70] xi[71]
 xi[72] xi[73] xi[74] xi[75] xi[76] xi[77] xi[78] xi[79] xi[80] xi[81]
 xi[82] xi[83] xi[84] xi[85] xi[86] xi[87] xi[88] xi[89] xi[90] xi[91]
 xi[92] xi[93] xi[94] xi[95] xi[96] xi[97] xi[98] xi[99] xi[100] xi[101]
 xi[102] xi[103] xi[104] xi[105] xi[106] xi[107] xi[108] xi[109] xi[110]
 xi[111] xi[112] xi[113] xi[114] xi[115] xi[116] xi[117] xi[118] xi[119]
 xi[120] xi[121] xi[122] xi[123] xi[124] xi[125] xi[126] xi[127] xi[128]
 xi[129] xi[130] xi[131] xi[132] xi[133] xi[134] xi[135] z[0] z[1] z[2]
 z[3] z[4] z[5] z[6] z[7] z[8] z[9] z[10] z[11] z[12] z[13] z[14] z[15]
 z[16] z[17] z[18] z[19] z[20] z[21] z[22] z[23] z[24] z[25] z[26] z[27]
 z[28] z[29] z[30] z[31] z[32] z[33] z[34] z[35] z[36] z[37] z[38] z[39]
 z[40] z[41] z[42] z[43] z[44] z[45] z[46] z[47] z[48] z[49] z[50] z[51]
 z[52] z[53] z[54] z[55] z[56] z[57] z[58] z[59] z[60] z[61] z[62] z[63]
 z[64] z[65] z[66] z[67] z[68] z[69] z[70] z[71] z[72] z[73] z[74] z[75]
 z[76] z[77] z[78] z[79] z[80] z[81] z[82] z[83] z[84] z[85] z[86] z[87]
 z[88] z[89] z[90] z[91] z[92] z[93] z[94] z[95] z[96] z[97] z[98] z[99]
 z[100] z[101] z[102] z[103] z[104] z[105] z[106] z[107] z[108] z[109]
 z[110] z[111] z[112] z[113] z[114] z[115] z[116] z[117] z[118] z[119]
 z[120] z[121] z[122] z[123] z[124] z[125] z[126] z[127] z[128] z[129]
 z[130] z[131] z[132] z[133] z[134] z[135] z[136] z[137] z[138] z[139]
 z[140] z[141] z[142] z[143] z[144] z[145] z[146] z[147] z[148] z[149]
 z[150] z[151] z[152] z[153] z[154] z[155] z[156] z[157] z[158] z[159]
 z[160] z[161] z[162] z[163] z[164] z[165] z[166] z[167] z[168] z[169]
 z[170] z[171] z[172] z[173] z[174] z[175] z[176] z[177] z[178] z[179]
 z[180] z[181] z[182] z[183] z[184] z[185] z[186] z[187] z[188] z[189]
 z[190] z[191] z[192] z[193] z[194] z[195] z[196] z[197] z[198] z[199]
 z[200] z[201] z[202] z[203] z[204] z[205] z[206] z[207] z[208] z[209]
 z[210] z[211] z[212] z[213] z[214] z[215] z[216] z[217] z[218] z[219]
 z[220] z[221] z[222] z[223] z[224] z[225] z[226] z[227] z[228] z[229]
 z[230] z[231] z[232] z[233] z[234] z[235] z[236] z[237] z[238] z[239]
 z[240] z[241] z[242] z[243] z[244] z[245] z[246] z[247] z[248] z[249]
 z[250] z[251] z[252] z[253] z[254] z[255] z[256] z[257] z[258] z[259]
 z[260] z[261] z[262] z[263] z[264] z[265] z[266] z[267] z[268] z[269]
 z[270] z[271] z[272] z[273] z[274] z[275] z[276] z[277] z[278] z[279]
 z[280] z[281] z[282] z[283] z[284] z[285] z[286] z[287] z[288] z[289]
 z[290] z[291] z[292] z[293] z[294] z[295] z[296] z[297] z[298] z[299]
 z[300] z[301] z[302] z[303] z[304] z[305] z[306] z[307] z[308] z[309]
 z[310] z[311] z[312] z[313] z[314] z[315] z[316] z[317] z[318] z[319]
 z[320] z[321] z[322] z[323] z[324] z[325] z[326] z[327] z[328] z[329]
 z[330] z[331] z[332] z[333] z[334] z[335] z[336] z[337] z[338] z[339]
 z[340] z[341] z[342] z[343] z[344] z[345] z[346] z[347] z[348] z[349]
 z[350] z[351] z[352] z[353] z[354] z[355] z[356] z[357] z[358] z[359]
 z[360] z[361] z[362] z[363] z[364] z[365] z[366] z[367] z[368] z[369]
 z[370] z[371] z[372] z[373] z[374] z[375] z[376] z[377] z[378] z[379]
 z[380] z[381] z[382] z[383] z[384] z[385] z[386] z[387] z[388] z[389]
 z[390] z[391] z[392] z[393] z[394] z[395] z[396] z[397] z[398] z[399]
 z[400] z[401] z[402] z[403] z[404] z[405] z[406] z[407] z[408] z[409]
 z[410] z[411] z[412] z[413] z[414] z[415] z[416] z[417] z[418] z[419]
 z[420] z[421] z[422] z[423] z[424] z[425] z[426] z[427] z[428] z[429]
 z[430] z[431] z[432] z[433] z[434] z[435] z[436] z[437] z[438] z[439]
 z[440] z[441] z[442] z[443] z[444] z[445] z[446] z[447] z[448] z[449]
 z[450] z[451] z[452] z[453] z[454] z[455] z[456] z[457] z[458] z[459]
 z[460] z[461] z[462] z[463] z[464] z[465] z[466] z[467] z[468] z[469]
 z[470] z[471] z[472] z[473] z[474] z[475] z[476] z[477] z[478] z[479]
 z[480] z[481] z[482] z[483] z[484] z[485] z[486] z[487] z[488] z[489]
 z[490] z[491] z[492] z[493] z[494] z[495] z[496] z[497] z[498] z[499]
 z[500] z[501] z[502] z[503] z[504] z[505] z[506] z[507] z[508] z[509]
 z[510] z[511] z[512] z[513] z[514] z[515] z[516] z[517] z[518] z[519]
 z[520] z[521] z[522] z[523] z[524] z[525] z[526] z[527] z[528] z[529]
 z[530] z[531] z[532] z[533] z[534] z[535] z[536] z[537] z[538] z[539]
 z[540] z[541] z[542] z[543] z[544] z[545] z[546] z[547] z[548] z[549]
 z[550] z[551] z[552] z[553] z[554] z[555] z[556] z[557] z[558] z[559]
 z[560] z[561] z[562] z[563] z[564] z[565] z[566] z[567] z[568] z[569]
 z[570] z[571] z[572] z[573] z[574] z[575] z[576] z[577] z[578] z[579]
 z[580] z[581] z[582] z[583] z[584] z[585] z[586] z[587] z[588] z[589]
 z[590] z[591] z[592] z[593] z[594] z[595] z[596] z[597] z[598] z[599]
 z[600] z[601] z[602] z[603] z[604] z[605] z[606] z[607] z[608] z[609]
 z[610] z[611] z[612] z[613] z[614] z[615] z[616] z[617] z[618] z[619]
 z[620] z[621] z[622] z[623] z[624] z[625] z[626] z[627] z[628] z[629]
 z[630] z[631] z[632] z[633] z[634] z[635] z[636] z[637] z[638] z[639]
 z[640] z[641] z[642] z[643] z[644] z[645] z[646] z[647] z[648] z[649]
 z[650] z[651] z[652] z[653] z[654] z[655] z[656] z[657] z[658] z[659]
 z[660] z[661] z[662] z[663] z[664] z[665] z[666] z[667] z[668] z[669]
 z[670] z[671] z[672] z[673] z[674] z[675] z[676] z[677] z[678] z[679]
 z[680] z[681] z[682] z[683] z[684] z[685] z[686] z[687] z[688] z[689]
 z[690] z[691] z[692] z[693] z[694] z[695] z[696] z[697] z[698] z[699]
 z[700] z[701] z[702] z[703] z[704] z[705] z[706] z[707] z[708] z[709]
 z[710] z[711] z[712] z[713] z[714] z[715] z[716] z[717] z[718] z[719]
 z[720] z[721] z[722] z[723] z[724] z[725] z[726] z[727] z[728] z[729]
 z[730] z[731] z[732] z[733] z[734] z[735] z[736] z[737] z[738] z[739]
 z[740] z[741] z[742] z[743] z[744] z[745] z[746] z[747] z[748] z[749]
 z[750] z[751] z[752] z[753] z[754] z[755] z[756] z[757] z[758] z[759]
 z[760] z[761] z[762] z[763] z[764] z[765] z[766] z[767] z[768] z[769]
 z[770] z[771] z[772] z[773] z[774] z[775] z[776] z[777] z[778] z[779]
 z[780] z[781] z[782] z[783] z[784] z[785] z[786] z[787] z[788] z[789]
 z[790] z[791] z[792] z[793] z[794] z[795] z[796] z[797] z[798] z[799]
 z[800] z[801] z[802] z[803] z[804] z[805] z[806] z[807] z[808] z[809]
 z[810] z[811] z[812] z[813] z[814] z[815] z[816] z[817] z[818] z[819]
 z[820] z[821] z[822] z[823] z[824] z[825] z[826] z[827] z[828] z[829]
 z[830] z[831] z[832] z[833] z[834] z[835] z[836] z[837] z[838] z[839]
 z[840] z[841] z[842] z[843] z[844] z[845] z[846] z[847] z[848] z[849]
 z[850] z[851] z[852] z[853] z[854] z[855] z[856] z[857] z[858] z[859]
 z[860] z[861] z[862] z[863] z[864] z[865] z[866] z[867] z[868] z[869]
 z[870] z[871] z[872] z[873] z[874] z[875] z[876] z[877] z[878] z[879]
 z[880] z[881] z[882] z[883] z[884] z[885] z[886] z[887] z[888] z[889]
 z[890] z[891] z[892] z[893] z[894] z[895] z[896] z[897] z[898] z[899]
 z[900] z[901] z[902] z[903] z[904] z[905] z[906] z[907] z[908] z[909]
 z[910] z[911] z[912] z[913] z[914] z[915] z[916] z[917] z[918] z[919]
 z[920] z[921] z[922] z[923] z[924] z[925] z[926] z[927] z[928] z[929]
 z[930] z[931] z[932] z[933] z[934] z[935] z[936] z[937] z[938] z[939]
 z[940] z[941] z[942] z[943] z[944] z[945] z[946] z[947] z[948] z[949]
 z[950] z[951] z[952] z[953] z[954] z[955] z[956] z[957] z[958] z[959]
 z[960] z[961] z[962] z[963] z[964] z[965] z[966] z[967] z[968] z[969]
 z[970] z[971] z[972] z[973] z[974] z[975] z[976] z[977] z[978] z[979]
 z[980] z[981] z[982] z[983] z[984] z[985] z[986] z[987] z[988] z[989]
 z[990] z[991] z[992] z[993] z[994] z[995] z[996] z[997] z[998] z[999]
 z[1000] z[1001] z[1002] z[1003] z[1004] z[1005] z[1006] z[1007] z[1008]
 z[1009] z[1010] z[1011] z[1012] z[1013] z[1014] z[1015] z[1016] z[1017]
 z[1018] z[1019] z[1020] z[1021] z[1022] z[1023] z[1024] z[1025] z[1026]
 z[1027] z[1028] z[1029] z[1030] z[1031] z[1032] z[1033] z[1034] z[1035]
 z[1036] z[1037] z[1038] z[1039] z[1040] z[1041] z[1042] z[1043] z[1044]
 z[1045] z[1046] z[1047] z[1048] z[1049] z[1050] z[1051] z[1052] z[1053]
 z[1054] z[1055] z[1056] z[1057] z[1058] z[1059] z[1060] z[1061] z[1062]
 z[1063] z[1064] z[1065] z[1066] z[1067] z[1068] z[1069] z[1070] z[1071]
 z[1072] z[1073] z[1074] z[1075] z[1076] z[1077] z[1078] z[1079] z[1080]
 z[1081] z[1082] z[1083] z[1084] z[1085] z[1086] z[1087] z[1088] z[1089]
 z[1090] z[1091] z[1092] z[1093] z[1094] z[1095] z[1096] z[1097] z[1098]
 z[1099] z[1100] z[1101] z[1102] z[1103] z[1104] z[1105] z[1106] z[1107]
 z[1108] z[1109] z[1110] z[1111] z[1112] z[1113] z[1114] z[1115] z[1116]
 z[1117] z[1118] z[1119] z[1120] z[1121] z[1122] z[1123] z[1124] z[1125]
 z[1126] z[1127] z[1128] z[1129] z[1130] z[1131] z[1132] z[1133] z[1134]
 z[1135] z[1136] z[1137] z[1138] z[1139] z[1140] z[1141] z[1142] z[1143]
 z[1144] z[1145] z[1146] z[1147] z[1148] z[1149] z[1150] z[1151] z[1152]
 z[1153] z[1154] z[1155] z[1156] z[1157] z[1158] z[1159] z[1160] z[1161]
 z[1162] z[1163] z[1164] z[1165] z[1166] z[1167] z[1168] z[1169] z[1170]
 z[1171] z[1172] z[1173] z[1174] z[1175] z[1176] z[1177] z[1178] z[1179]
 z[1180] z[1181] z[1182] z[1183] z[1184] z[1185] z[1186] z[1187] z[1188]
 z[1189] z[1190] z[1191] z[1192] z[1193] z[1194] z[1195] z[1196] z[1197]
 z[1198] z[1199] z[1200] z[1201] z[1202] z[1203] z[1204] z[1205] z[1206]
 z[1207] z[1208] z[1209] z[1210] z[1211] z[1212] z[1213] z[1214] z[1215]
 z[1216] z[1217] z[1218] z[1219] z[1220] z[1221] z[1222] z[1223] z[1224]
 z[1225] z[1226] z[1227] z[1228] z[1229] z[1230] z[1231] z[1232] z[1233]
 z[1234] z[1235] z[1236] z[1237] z[1238] z[1239] z[1240] z[1241] z[1242]
 z[1243] z[1244] z[1245] z[1246] z[1247] z[1248] z[1249] z[1250] z[1251]
 z[1252] z[1253] z[1254] z[1255] z[1256] z[1257] z[1258] z[1259] z[1260]
 z[1261] z[1262] z[1263] z[1264] z[1265] z[1266] z[1267] z[1268] z[1269]
 z[1270] z[1271] z[1272] z[1273] z[1274] z[1275] z[1276] z[1277] z[1278]
 z[1279] z[1280] z[1281] z[1282] z[1283] z[1284] z[1285] z[1286] z[1287]
 z[1288] z[1289] z[1290] z[1291] z[1292] z[1293] z[1294] z[1295] z[1296]
 z[1297] z[1298] z[1299] z[1300] z[1301] z[1302] z[1303] z[1304] z[1305]
 z[1306] z[1307] z[1308] z[1309] z[1310] z[1311] z[1312] z[1313] z[1314]
 z[1315] z[1316] z[1317] z[1318] z[1319] z[1320] z[1321] z[1322] z[1323]
 z[1324] z[1325] z[1326] z[1327] z[1328] z[1329] z[1330] z[1331] z[1332]
 z[1333] z[1334] z[1335] z[1336] z[1337] z[1338] z[1339] z[1340] z[1341]
 z[1342] z[1343] z[1344] z[1345] z[1346] z[1347] z[1348] z[1349] z[1350]
 z[1351] z[1352] z[1353] z[1354] z[1355] z[1356] z[1357] z[1358] z[1359]
 z[1360] z[1361] z[1362] z[1363] z[1364] z[1365] z[1366] z[1367] z[1368]
 z[1369] z[1370] z[1371] z[1372] z[1373] z[1374] z[1375] z[1376] z[1377]
 z[1378] z[1379] z[1380] z[1381] z[1382] z[1383] z[1384] z[1385] z[1386]
 z[1387] z[1388] z[1389] z[1390] z[1391] z[1392] z[1393] z[1394] z[1395]
 z[1396] z[1397] z[1398] z[1399] z[1400] z[1401] z[1402] z[1403] z[1404]
 z[1405] z[1406] z[1407] z[1408] z[1409] z[1410] z[1411] z[1412] z[1413]
 z[1414] z[1415] z[1416] z[1417] z[1418] z[1419] z[1420] z[1421] z[1422]
 z[1423] z[1424] z[1425] z[1426] z[1427] z[1428] z[1429] z[1430] z[1431]
 z[1432] z[1433] z[1434] z[1435] z[1436] z[1437] z[1438] z[1439] z[1440]
 z[1441] z[1442] z[1443] z[1444] z[1445] z[1446] z[1447] z[1448] z[1449]
 z[1450] z[1451] z[1452] z[1453] z[1454] z[1455] z[1456] z[1457] z[1458]
 z[1459] z[1460] z[1461] z[1462] z[1463] z[1464] z[1465] z[1466] z[1467]
 z[1468] z[1469] z[1470] z[1471] z[1472] z[1473] z[1474] z[1475] z[1476]
 z[1477] z[1478] z[1479] z[1480] z[1481] z[1482] z[1483] z[1484] z[1485]
 z[1486] z[1487] z[1488] z[1489] z[1490] z[1491] z[1492] z[1493] z[1494]
 z[1495] z[1496] z[1497] z[1498] z[1499] z[1500] z[1501] z[1502] z[1503]
 z[1504] z[1505] z[1506] z[1507] z[1508] z[1509] z[1510] z[1511] z[1512]
 z[1513] z[1514] z[1515] z[1516] z[1517] z[1518] z[1519] z[1520] z[1521]
 z[1522] z[1523] z[1524] z[1525] z[1526] z[1527] z[1528] z[1529] z[1530]
 z[1531] z[1532] z[1533] z[1534] z[1535] z[1536] z[1537] z[1538] z[1539]
 z[1540] z[1541] z[1542] z[1543] z[1544] z[1545] z[1546] z[1547] z[1548]
 z[1549] z[1550] z[1551] z[1552] z[1553] z[1554] z[1555] z[1556] z[1557]
 z[1558] z[1559] z[1560] z[1561] z[1562] z[1563] z[1564] z[1565] z[1566]
 z[1567] z[1568] z[1569] z[1570] z[1571] z[1572] z[1573] z[1574] z[1575]
 z[1576] z[1577] z[1578] z[1579] z[1580] z[1581] z[1582] z[1583] z[1584]
 z[1585] z[1586] z[1587] z[1588] z[1589] z[1590] z[1591] z[1592] z[1593]
 z[1594] z[1595] z[1596] z[1597] z[1598] z[1599] z[1600] z[1601] z[1602]
 z[1603] z[1604] z[1605] z[1606] z[1607] z[1608] z[1609] z[1610] z[1611]
 z[1612] z[1613] z[1614] z[1615] z[1616] z[1617] z[1618] z[1619] z[1620]
 z[1621] z[1622] z[1623] z[1624] z[1625] z[1626] z[1627] z[1628] z[1629]
 z[1630] z[1631] z[1632] z[1633] z[1634] z[1635] z[1636] z[1637] z[1638]
 z[1639] z[1640] z[1641] z[1642] z[1643] z[1644] z[1645] z[1646] z[1647]
 z[1648] z[1649] z[1650] z[1651] z[1652] z[1653] z[1654] z[1655] z[1656]
 z[1657] z[1658] z[1659] z[1660] z[1661] z[1662] z[1663] z[1664] z[1665]
 z[1666] z[1667] z[1668] z[1669] z[1670] z[1671] z[1672] z[1673] z[1674]
 z[1675] z[1676] z[1677] z[1678] z[1679] z[1680] z[1681] z[1682] z[1683]
 z[1684] z[1685] z[1686] z[1687] z[1688] z[1689] z[1690] z[1691] z[1692]
 z[1693] z[1694] z[1695] z[1696] z[1697] z[1698] z[1699] z[1700] z[1701]
 z[1702] z[1703] z[1704] z[1705] z[1706] z[1707] z[1708] z[1709] z[1710]
 z[1711] z[1712] z[1713] z[1714] z[1715] z[1716] z[1717] z[1718] z[1719]
 z[1720] z[1721] z[1722] z[1723] z[1724] z[1725] z[1726] z[1727] z[1728]
 z[1729] z[1730] z[1731] z[1732] z[1733] z[1734] z[1735] z[1736] z[1737]
 z[1738] z[1739] z[1740] z[1741] z[1742] z[1743] z[1744] z[1745] z[1746]
 z[1747] z[1748] z[1749] z[1750] z[1751] z[1752] z[1753] z[1754] z[1755]
 z[1756] z[1757] z[1758] z[1759] z[1760] z[1761] z[1762] z[1763] z[1764]
 z[1765] z[1766] z[1767] z[1768] z[1769] z[1770] z[1771] z[1772] z[1773]
 z[1774] z[1775] z[1776] z[1777] z[1778] z[1779] z[1780] z[1781] z[1782]
 z[1783] z[1784] z[1785] z[1786] z[1787] z[1788] z[1789] z[1790] z[1791]
 z[1792] z[1793] z[1794] z[1795] z[1796] z[1797] z[1798] z[1799] z[1800]
 z[1801] z[1802] z[1803] z[1804] z[1805] z[1806] z[1807] z[1808] z[1809]
 z[1810] z[1811] z[1812] z[1813] z[1814] z[1815] z[1816] z[1817] z[1818]
 z[1819] z[1820] z[1821] z[1822] z[1823] z[1824] z[1825] z[1826] z[1827]
 z[1828] z[1829] z[1830] z[1831] z[1832] z[1833] z[1834] z[1835] z[1836]
 z[1837] z[1838] z[1839] z[1840] z[1841] z[1842] z[1843] z[1844] z[1845]
 z[1846] z[1847] z[1848] z[1849] z[1850] z[1851] z[1852] z[1853] z[1854]
 z[1855] z[1856] z[1857] z[1858] z[1859] z[1860] z[1861] z[1862] z[1863]
 z[1864] z[1865] z[1866] z[1867] z[1868] z[1869] z[1870] z[1871] z[1872]
 z[1873] z[1874] z[1875] z[1876] z[1877] z[1878] z[1879] z[1880] z[1881]
 z[1882] z[1883] z[1884] z[1885] z[1886] z[1887] z[1888] z[1889] z[1890]
 z[1891] z[1892] z[1893] z[1894] z[1895] z[1896] z[1897] z[1898] z[1899]
 z[1900] z[1901] z[1902] z[1903] z[1904] z[1905] z[1906] z[1907] z[1908]
 z[1909] z[1910] z[1911] z[1912] z[1913] z[1914] z[1915] z[1916] z[1917]
 z[1918] z[1919] z[1920] z[1921] z[1922] z[1923] z[1924] z[1925] z[1926]
 z[1927] z[1928] z[1929] z[1930] z[1931] z[1932] z[1933] z[1934] z[1935]
 z[1936] z[1937] z[1938] z[1939] z[1940] z[1941] z[1942] z[1943] z[1944]
 z[1945] z[1946] z[1947] z[1948] z[1949] z[1950] z[1951] z[1952] z[1953]
 z[1954] z[1955] z[1956] z[1957] z[1958] z[1959] z[1960] z[1961] z[1962]
 z[1963] z[1964] z[1965] z[1966] z[1967] z[1968] z[1969] z[1970] z[1971]
 z[1972] z[1973] z[1974] z[1975] z[1976] z[1977] z[1978] z[1979] z[1980]
 z[1981] z[1982] z[1983] z[1984] z[1985] z[1986] z[1987] z[1988] z[1989]
 z[1990] z[1991] z[1992] z[1993] z[1994] z[1995] z[1996] z[1997] z[1998]
 z[1999] z[2000] z[2001] z[2002] z[2003] z[2004] z[2005] z[2006] z[2007]
 z[2008] z[2009] z[2010] z[2011] z[2012] z[2013] z[2014] z[2015] z[2016]
 z[2017] z[2018] z[2019] z[2020] z[2021] z[2022] z[2023] z[2024] z[2025]
 z[2026] z[2027] z[2028] z[2029] z[2030] z[2031] z[2032] z[2033] z[2034]
 z[2035] z[2036] z[2037] z[2038] z[2039] z[2040] z[2041] z[2042] z[2043]
 z[2044] z[2045] z[2046] z[2047] z[2048] z[2049] z[2050] z[2051] z[2052]
 z[2053] z[2054] z[2055] z[2056] z[2057] z[2058] z[2059] z[2060] z[2061]
 z[2062] z[2063] z[2064] z[2065] z[2066] z[2067] z[2068] z[2069] z[2070]
 z[2071] z[2072] z[2073] z[2074] z[2075] z[2076] z[2077] z[2078] z[2079]
 z[2080] z[2081] z[2082] z[2083] z[2084] z[2085] z[2086] z[2087] z[2088]
 z[2089] z[2090] z[2091] z[2092] z[2093] z[2094] z[2095] z[2096] z[2097]
 z[2098] z[2099] z[2100] z[2101] z[2102] z[2103] z[2104] z[2105] z[2106]
 z[2107] z[2108] z[2109] z[2110] z[2111] z[2112] z[2113] z[2114] z[2115]
 z[2116] z[2117] z[2118] z[2119] z[2120] z[2121] z[2122] z[2123] z[2124]
 z[2125] z[2126] z[2127] z[2128] z[2129] z[2130] z[2131] z[2132] z[2133]
 z[2134] z[2135] z[2136] z[2137] z[2138] z[2139] z[2140] z[2141] z[2142]
 z[2143] z[2144] z[2145] z[2146] z[2147] z[2148] z[2149] z[2150] z[2151]
 z[2152] z[2153] z[2154] z[2155] z[2156] z[2157] z[2158] z[2159] z[2160]
 z[2161] z[2162] z[2163] z[2164] z[2165] z[2166] z[2167] z[2168] z[2169]
 z[2170] z[2171] z[2172] z[2173] z[2174] z[2175] z[2176] z[2177] z[2178]
 z[2179] z[2180] z[2181] z[2182] z[2183] z[2184] z[2185] z[2186] z[2187]
 z[2188] z[2189] z[2190] z[2191] z[2192] z[2193] z[2194] z[2195] z[2196]
 z[2197] z[2198] z[2199] z[2200] z[2201] z[2202] z[2203] z[2204] z[2205]
 z[2206] z[2207] z[2208] z[2209] z[2210] z[2211] z[2212] z[2213] z[2214]
 z[2215] z[2216] z[2217] z[2218] z[2219] z[2220] z[2221] z[2222] z[2223]
 z[2224] z[2225] z[2226] z[2227] z[2228] z[2229] z[2230] z[2231] z[2232]
 z[2233] z[2234] z[2235] z[2236] z[2237] z[2238] z[2239] z[2240] z[2241]
 z[2242] z[2243] z[2244] z[2245] z[2246] z[2247] z[2248] z[2249] z[2250]
 z[2251] z[2252] z[2253] z[2254] z[2255] z[2256] z[2257] z[2258] z[2259]
 z[2260] z[2261] z[2262] z[2263] z[2264] z[2265] z[2266] z[2267] z[2268]
 z[2269] z[2270] z[2271] z[2272] z[2273] z[2274] z[2275] z[2276] z[2277]
 z[2278] z[2279] z[2280] z[2281] z[2282] z[2283] z[2284] z[2285] z[2286]
 z[2287] z[2288] z[2289] z[2290] z[2291] z[2292] z[2293] z[2294] z[2295]
 z[2296] z[2297] z[2298] z[2299] z[2300] z[2301] z[2302] z[2303] z[2304]
 z[2305] z[2306] z[2307] z[2308] z[2309] z[2310] z[2311] z[2312] z[2313]
 z[2314] z[2315] z[2316] z[2317] z[2318] z[2319] z[2320] z[2321] z[2322]
 z[2323] z[2324] z[2325] z[2326] z[2327] z[2328] z[2329] z[2330] z[2331]
 z[2332] z[2333] z[2334] z[2335] z[2336] z[2337] z[2338] z[2339] z[2340]
 z[2341] z[2342] z[2343] z[2344] z[2345] z[2346] z[2347] z[2348] z[2349]
 z[2350] z[2351] z[2352] z[2353] z[2354] z[2355] z[2356] z[2357] z[2358]
 z[2359] z[2360] z[2361] z[2362] z[2363] z[2364] z[2365] z[2366] z[2367]
 z[2368] z[2369] z[2370] z[2371] z[2372] z[2373] z[2374] z[2375] z[2376]
 z[2377] z[2378] z[2379] z[2380] z[2381] z[2382] z[2383] z[2384] z[2385]
 z[2386] z[2387] z[2388] z[2389] z[2390] z[2391] z[2392] z[2393] z[2394]
 z[2395] z[2396] z[2397] z[2398] z[2399] z[2400] z[2401] z[2402] z[2403]
 z[2404] z[2405] z[2406] z[2407] z[2408] z[2409] z[2410] z[2411] z[2412]
 z[2413] z[2414] z[2415] z[2416] z[2417] z[2418] z[2419] z[2420] z[2421]
 z[2422] z[2423] z[2424] z[2425] z[2426] z[2427] z[2428] z[2429] z[2430]
 z[2431] z[2432] z[2433] z[2434] z[2435] z[2436] z[2437] z[2438] z[2439]
 z[2440] z[2441] z[2442] z[2443] z[2444] z[2445] z[2446] z[2447] z[2448]
 z[2449] z[2450] z[2451] z[2452] z[2453] z[2454] z[2455] z[2456] z[2457]
 z[2458] z[2459] z[2460] z[2461] z[2462] z[2463] z[2464] z[2465] z[2466]
 z[2467] z[2468] z[2469] z[2470] z[2471] z[2472] z[2473] z[2474] z[2475]
 z[2476] z[2477] z[2478] z[2479] z[2480] z[2481] z[2482] z[2483] z[2484]
 z[2485] z[2486] z[2487] z[2488] z[2489] z[2490] z[2491] z[2492] z[2493]
 z[2494] z[2495] z[2496] z[2497] z[2498] z[2499] z[2500] z[2501] z[2502]
 z[2503] z[2504] z[2505] z[2506] z[2507] z[2508] z[2509] z[2510] z[2511]
 z[2512] z[2513] z[2514] z[2515] z[2516] z[2517] z[2518] z[2519] z[2520]
 z[2521] z[2522] z[2523] z[2524] z[2525] z[2526] z[2527] z[2528] z[2529]
 z[2530] z[2531] z[2532] z[2533] z[2534] z[2535] z[2536] z[2537] z[2538]
 z[2539] z[2540] z[2541] z[2542] z[2543] z[2544] z[2545] z[2546] z[2547]
 z[2548] z[2549] z[2550] z[2551] z[2552] z[2553] z[2554] z[2555] z[2556]
 z[2557] z[2558] z[2559] z[2560] z[2561] z[2562] z[2563] z[2564] z[2565]
 z[2566] z[2567] z[2568] z[2569] z[2570] z[2571] z[2572] z[2573] z[2574]
 z[2575] z[2576] z[2577] z[2578] z[2579] z[2580] z[2581] z[2582] z[2583]
End
