\ Model SPPcover
\ LP format - for model browsing. Use MPS format to capture full model detail.
\ Signature: 0x7f41964006944a0f
Minimize
  7.07444 x[0] + 5.00806 x[1] + 3.79311 x[2] + 2.65477 x[3] + 2.73281 x[4]
   + 4.05356 x[5] + 3.27096 x[6] + 12.8925 x[7] + 16.544 x[8]
   + 21.1571 x[9] + 25.5444 x[10] + 32.3705 x[11] + 37.1821 x[12]
   + 41.031 x[13] + 44.7853 x[14] + 48.9148 x[15] - 2.16291 x[16]
   - 4.15278 x[17] - 6.31394 x[18] - 1.52548 x[19] - 1.16088 x[20]
   - 2.87125 x[21] + 8.48479 x[22] + 11.6058 x[23] + 17.0185 x[24]
   + 19.9895 x[25] + 26.7476 x[26] + 31.1779 x[27] + 34.5673 x[28]
   + 37.8767 x[29] + 41.6226 x[30] - 3.0124 x[31] - 5.1036 x[32]
   - 0.724386 x[33] - 0.310557 x[34] - 1.89505 x[35] + 9.11909 x[36]
   + 11.8856 x[37] + 16.6373 x[38] + 20.0707 x[39] + 25.1207 x[40]
   + 29.0262 x[41] + 31.9714 x[42] + 34.852 x[43] + 38.166 x[44]
   - 3.0124 x[45] - 1.16068 x[46] + 1.763 x[47] - 0.610923 x[48]
   + 9.60826 x[49] + 11.9406 x[50] + 15.9862 x[51] + 18.8506 x[52]
   + 24.1824 x[53] + 26.5385 x[54] + 29.0095 x[55] + 31.4295 x[56]
   + 34.2809 x[57] + 1.89174 x[58] + 3.10716 x[59] + 1.68074 x[60]
   + 9.15418 x[61] + 10.7569 x[62] + 13.9683 x[63] + 16.1284 x[64]
   + 20.7977 x[65] + 23.5306 x[66] + 24.4147 x[67] + 26.2641 x[68]
   + 28.5725 x[69] + 5.07169 x[70] + 2.60049 x[71] + 9.33785 x[72]
   + 9.15418 x[73] + 11.4667 x[74] + 12.839 x[75] + 16.8388 x[76]
   + 18.872 x[77] + 20.0772 x[78] + 20.2604 x[79] + 21.9423 x[80]
   + 5.03479 x[81] + 9.10766 x[82] + 9.33785 x[83] + 9.7675 x[84]
   + 10.3921 x[85] + 13.5853 x[86] + 14.8764 x[87] + 15.3993 x[88]
   + 15.8992 x[89] + 15.9009 x[90] + 9.93893 x[91] + 8.74214 x[92]
   + 9.33785 x[93] + 8.26947 x[94] + 10.5547 x[95] + 11.0564 x[96]
   + 10.8942 x[97] + 10.6901 x[98] + 10.9377 x[99] + 5.18078 x[100]
   + 3.06071 x[101] + 1.4963 x[102] + 2.05853 x[103] + 1.03923 x[104]
   - 0.452498 x[105] - 2.04472 x[106] - 3.24514 x[107] + 5.46058 x[108]
   + 3.06071 x[109] + 4.11597 x[110] + 1.99379 x[111] + 0.597209 x[112]
   - 0.93439 x[113] - 2.28448 x[114] + 3.11736 x[115] + 1.81248 x[116]
   + 0.0480506 x[117] - 2.11162 x[118] - 3.61517 x[119] - 5.60266 x[120]
   + 3.11736 x[121] + 0.35767 x[122] - 1.41025 x[123] - 4.44935 x[124]
   - 6.34528 x[125] - 2.16291 x[126] - 3.28728 x[127] - 4.82491 x[128]
   - 8.42362 x[129] - 0.135582 x[130] - 3.0891 x[131] - 5.5299 x[132]
   + 0.264632 x[133] - 2.98176 x[134] - 4.76939 x[135]
Subject To
 cover_0: x[0] + x[1] + x[2] + x[3] + x[4] + x[5] + x[6] + x[7] + x[8]
   + x[9] + x[10] + x[11] + x[12] + x[13] + x[14] + x[15] = 1
 cover_1: x[0] + x[1] + x[2] + x[3] + x[4] + x[5] + x[6] + x[7] + x[8]
   + x[9] + x[10] + x[11] + x[12] + x[13] + x[14] + x[15] + x[16] + x[17]
   + x[18] + x[19] + x[20] + x[21] + x[22] + x[23] + x[24] + x[25] + x[26]
   + x[27] + x[28] + x[29] + x[30] = 1
 cover_2: x[0] + x[1] + x[2] + x[3] + x[4] + x[5] + x[6] + x[7] + x[8]
   + x[9] + x[10] + x[11] + x[12] + x[13] + x[14] + x[15] + x[16] + x[17]
   + x[18] + x[19] + x[20] + x[21] + x[22] + x[23] + x[24] + x[25] + x[26]
   + x[27] + x[28] + x[29] + x[30] + x[31] + x[32] + x[33] + x[34] + x[35]
   + x[36] + x[37] + x[38] + x[39] + x[40] + x[41] + x[42] + x[43] + x[44]
   = 1
 cover_3: x[0] + x[1] + x[2] + x[3] + x[4] + x[5] + x[6] + x[7] + x[8]
   + x[9] + x[10] + x[11] + x[12] + x[13] + x[14] + x[15] + x[16] + x[17]
   + x[18] + x[19] + x[20] + x[21] + x[22] + x[23] + x[24] + x[25] + x[26]
   + x[27] + x[28] + x[29] + x[30] + x[31] + x[32] + x[33] + x[34] + x[35]
   + x[36] + x[37] + x[38] + x[39] + x[40] + x[41] + x[42] + x[43] + x[44]
   + x[45] + x[46] + x[47] + x[48] + x[49] + x[50] + x[51] + x[52] + x[53]
   + x[54] + x[55] + x[56] + x[57] = 1
 cover_4: x[0] + x[1] + x[2] + x[3] + x[4] + x[5] + x[6] + x[7] + x[8]
   + x[9] + x[10] + x[11] + x[12] + x[13] + x[14] + x[15] + x[16] + x[17]
   + x[18] + x[19] + x[20] + x[21] + x[22] + x[23] + x[24] + x[25] + x[26]
   + x[27] + x[28] + x[29] + x[30] + x[31] + x[32] + x[33] + x[34] + x[35]
   + x[36] + x[37] + x[38] + x[39] + x[40] + x[41] + x[42] + x[43] + x[44]
   + x[45] + x[46] + x[47] + x[48] + x[49] + x[50] + x[51] + x[52] + x[53]
   + x[54] + x[55] + x[56] + x[57] + x[58] + x[59] + x[60] + x[61] + x[62]
   + x[63] + x[64] + x[65] + x[66] + x[67] + x[68] + x[69] = 1
 cover_5: x[1] + x[2] + x[3] + x[4] + x[5] + x[6] + x[7] + x[8] + x[9]
   + x[10] + x[11] + x[12] + x[13] + x[14] + x[15] + x[16] + x[17] + x[18]
   + x[19] + x[20] + x[21] + x[22] + x[23] + x[24] + x[25] + x[26] + x[27]
   + x[28] + x[29] + x[30] + x[31] + x[32] + x[33] + x[34] + x[35] + x[36]
   + x[37] + x[38] + x[39] + x[40] + x[41] + x[42] + x[43] + x[44] + x[45]
   + x[46] + x[47] + x[48] + x[49] + x[50] + x[51] + x[52] + x[53] + x[54]
   + x[55] + x[56] + x[57] + x[58] + x[59] + x[60] + x[61] + x[62] + x[63]
   + x[64] + x[65] + x[66] + x[67] + x[68] + x[69] + x[70] + x[71] + x[72]
   + x[73] + x[74] + x[75] + x[76] + x[77] + x[78] + x[79] + x[80] = 1
 cover_6: x[2] + x[3] + x[4] + x[5] + x[6] + x[7] + x[8] + x[9] + x[10]
   + x[11] + x[12] + x[13] + x[14] + x[15] + x[17] + x[18] + x[19] + x[20]
   + x[21] + x[22] + x[23] + x[24] + x[25] + x[26] + x[27] + x[28] + x[29]
   + x[30] + x[31] + x[32] + x[33] + x[34] + x[35] + x[36] + x[37] + x[38]
   + x[39] + x[40] + x[41] + x[42] + x[43] + x[44] + x[45] + x[46] + x[47]
   + x[48] + x[49] + x[50] + x[51] + x[52] + x[53] + x[54] + x[55] + x[56]
   + x[57] + x[58] + x[59] + x[60] + x[61] + x[62] + x[63] + x[64] + x[65]
   + x[66] + x[67] + x[68] + x[69] + x[70] + x[71] + x[72] + x[73] + x[74]
   + x[75] + x[76] + x[77] + x[78] + x[79] + x[80] + x[81] + x[82] + x[83]
   + x[84] + x[85] + x[86] + x[87] + x[88] + x[89] + x[90] = 1
 cover_7: x[3] + x[4] + x[5] + x[6] + x[7] + x[8] + x[9] + x[10] + x[11]
   + x[12] + x[13] + x[14] + x[15] + x[18] + x[19] + x[20] + x[21] + x[22]
   + x[23] + x[24] + x[25] + x[26] + x[27] + x[28] + x[29] + x[30] + x[32]
   + x[33] + x[34] + x[35] + x[36] + x[37] + x[38] + x[39] + x[40] + x[41]
   + x[42] + x[43] + x[44] + x[45] + x[46] + x[47] + x[48] + x[49] + x[50]
   + x[51] + x[52] + x[53] + x[54] + x[55] + x[56] + x[57] + x[58] + x[59]
   + x[60] + x[61] + x[62] + x[63] + x[64] + x[65] + x[66] + x[67] + x[68]
   + x[69] + x[70] + x[71] + x[72] + x[73] + x[74] + x[75] + x[76] + x[77]
   + x[78] + x[79] + x[80] + x[81] + x[82] + x[83] + x[84] + x[85] + x[86]
   + x[87] + x[88] + x[89] + x[90] + x[91] + x[92] + x[93] + x[94] + x[95]
   + x[96] + x[97] + x[98] + x[99] = 1
 cover_8: x[4] + x[5] + x[6] + x[7] + x[8] + x[9] + x[10] + x[11] + x[12]
   + x[13] + x[14] + x[15] + x[19] + x[20] + x[21] + x[22] + x[23] + x[24]
   + x[25] + x[26] + x[27] + x[28] + x[29] + x[30] + x[33] + x[34] + x[35]
   + x[36] + x[37] + x[38] + x[39] + x[40] + x[41] + x[42] + x[43] + x[44]
   + x[46] + x[47] + x[48] + x[49] + x[50] + x[51] + x[52] + x[53] + x[54]
   + x[55] + x[56] + x[57] + x[58] + x[59] + x[60] + x[61] + x[62] + x[63]
   + x[64] + x[65] + x[66] + x[67] + x[68] + x[69] + x[70] + x[71] + x[72]
   + x[73] + x[74] + x[75] + x[76] + x[77] + x[78] + x[79] + x[80] + x[81]
   + x[82] + x[83] + x[84] + x[85] + x[86] + x[87] + x[88] + x[89] + x[90]
   + x[91] + x[92] + x[93] + x[94] + x[95] + x[96] + x[97] + x[98] + x[99]
   + x[100] + x[101] + x[102] + x[103] + x[104] + x[105] + x[106] + x[107]
   = 1
 cover_9: x[5] + x[6] + x[7] + x[8] + x[9] + x[10] + x[11] + x[12] + x[13]
   + x[14] + x[15] + x[20] + x[21] + x[22] + x[23] + x[24] + x[25] + x[26]
   + x[27] + x[28] + x[29] + x[30] + x[34] + x[35] + x[36] + x[37] + x[38]
   + x[39] + x[40] + x[41] + x[42] + x[43] + x[44] + x[47] + x[48] + x[49]
   + x[50] + x[51] + x[52] + x[53] + x[54] + x[55] + x[56] + x[57] + x[59]
   + x[60] + x[61] + x[62] + x[63] + x[64] + x[65] + x[66] + x[67] + x[68]
   + x[69] + x[70] + x[71] + x[72] + x[73] + x[74] + x[75] + x[76] + x[77]
   + x[78] + x[79] + x[80] + x[81] + x[82] + x[83] + x[84] + x[85] + x[86]
   + x[87] + x[88] + x[89] + x[90] + x[91] + x[92] + x[93] + x[94] + x[95]
   + x[96] + x[97] + x[98] + x[99] + x[100] + x[101] + x[102] + x[103]
   + x[104] + x[105] + x[106] + x[107] + x[108] + x[109] + x[110] + x[111]
   + x[112] + x[113] + x[114] = 1
 cover_10: x[6] + x[7] + x[8] + x[9] + x[10] + x[11] + x[12] + x[13]
   + x[14] + x[15] + x[21] + x[22] + x[23] + x[24] + x[25] + x[26] + x[27]
   + x[28] + x[29] + x[30] + x[35] + x[36] + x[37] + x[38] + x[39] + x[40]
   + x[41] + x[42] + x[43] + x[44] + x[48] + x[49] + x[50] + x[51] + x[52]
   + x[53] + x[54] + x[55] + x[56] + x[57] + x[60] + x[61] + x[62] + x[63]
   + x[64] + x[65] + x[66] + x[67] + x[68] + x[69] + x[71] + x[72] + x[73]
   + x[74] + x[75] + x[76] + x[77] + x[78] + x[79] + x[80] + x[81] + x[82]
   + x[83] + x[84] + x[85] + x[86] + x[87] + x[88] + x[89] + x[90] + x[91]
   + x[92] + x[93] + x[94] + x[95] + x[96] + x[97] + x[98] + x[99] + x[100]
   + x[101] + x[102] + x[103] + x[104] + x[105] + x[106] + x[107] + x[108]
   + x[109] + x[110] + x[111] + x[112] + x[113] + x[114] + x[115] + x[116]
   + x[117] + x[118] + x[119] + x[120] = 1
 cover_11: x[7] + x[8] + x[9] + x[10] + x[11] + x[12] + x[13] + x[14]
   + x[15] + x[22] + x[23] + x[24] + x[25] + x[26] + x[27] + x[28] + x[29]
   + x[30] + x[36] + x[37] + x[38] + x[39] + x[40] + x[41] + x[42] + x[43]
   + x[44] + x[49] + x[50] + x[51] + x[52] + x[53] + x[54] + x[55] + x[56]
   + x[57] + x[61] + x[62] + x[63] + x[64] + x[65] + x[66] + x[67] + x[68]
   + x[69] + x[72] + x[73] + x[74] + x[75] + x[76] + x[77] + x[78] + x[79]
   + x[80] + x[82] + x[83] + x[84] + x[85] + x[86] + x[87] + x[88] + x[89]
   + x[90] + x[91] + x[92] + x[93] + x[94] + x[95] + x[96] + x[97] + x[98]
   + x[99] + x[100] + x[101] + x[102] + x[103] + x[104] + x[105] + x[106]
   + x[107] + x[108] + x[109] + x[110] + x[111] + x[112] + x[113] + x[114]
   + x[115] + x[116] + x[117] + x[118] + x[119] + x[120] + x[121] + x[122]
   + x[123] + x[124] + x[125] = 1
 cover_12: x[8] + x[9] + x[10] + x[11] + x[12] + x[13] + x[14] + x[15]
   + x[23] + x[24] + x[25] + x[26] + x[27] + x[28] + x[29] + x[30] + x[37]
   + x[38] + x[39] + x[40] + x[41] + x[42] + x[43] + x[44] + x[50] + x[51]
   + x[52] + x[53] + x[54] + x[55] + x[56] + x[57] + x[62] + x[63] + x[64]
   + x[65] + x[66] + x[67] + x[68] + x[69] + x[73] + x[74] + x[75] + x[76]
   + x[77] + x[78] + x[79] + x[80] + x[83] + x[84] + x[85] + x[86] + x[87]
   + x[88] + x[89] + x[90] + x[92] + x[93] + x[94] + x[95] + x[96] + x[97]
   + x[98] + x[99] + x[100] + x[101] + x[102] + x[103] + x[104] + x[105]
   + x[106] + x[107] + x[108] + x[109] + x[110] + x[111] + x[112] + x[113]
   + x[114] + x[115] + x[116] + x[117] + x[118] + x[119] + x[120] + x[121]
   + x[122] + x[123] + x[124] + x[125] + x[126] + x[127] + x[128] + x[129]
   = 1
 cover_13: x[9] + x[10] + x[11] + x[12] + x[13] + x[14] + x[15] + x[24]
   + x[25] + x[26] + x[27] + x[28] + x[29] + x[30] + x[38] + x[39] + x[40]
   + x[41] + x[42] + x[43] + x[44] + x[51] + x[52] + x[53] + x[54] + x[55]
   + x[56] + x[57] + x[63] + x[64] + x[65] + x[66] + x[67] + x[68] + x[69]
   + x[74] + x[75] + x[76] + x[77] + x[78] + x[79] + x[80] + x[84] + x[85]
   + x[86] + x[87] + x[88] + x[89] + x[90] + x[93] + x[94] + x[95] + x[96]
   + x[97] + x[98] + x[99] + x[101] + x[102] + x[103] + x[104] + x[105]
   + x[106] + x[107] + x[108] + x[109] + x[110] + x[111] + x[112] + x[113]
   + x[114] + x[115] + x[116] + x[117] + x[118] + x[119] + x[120] + x[121]
   + x[122] + x[123] + x[124] + x[125] + x[126] + x[127] + x[128] + x[129]
   + x[130] + x[131] + x[132] = 1
 cover_14: x[10] + x[11] + x[12] + x[13] + x[14] + x[15] + x[25] + x[26]
   + x[27] + x[28] + x[29] + x[30] + x[39] + x[40] + x[41] + x[42] + x[43]
   + x[44] + x[52] + x[53] + x[54] + x[55] + x[56] + x[57] + x[64] + x[65]
   + x[66] + x[67] + x[68] + x[69] + x[75] + x[76] + x[77] + x[78] + x[79]
   + x[80] + x[85] + x[86] + x[87] + x[88] + x[89] + x[90] + x[94] + x[95]
   + x[96] + x[97] + x[98] + x[99] + x[102] + x[103] + x[104] + x[105]
   + x[106] + x[107] + x[109] + x[110] + x[111] + x[112] + x[113] + x[114]
   + x[115] + x[116] + x[117] + x[118] + x[119] + x[120] + x[121] + x[122]
   + x[123] + x[124] + x[125] + x[126] + x[127] + x[128] + x[129] + x[130]
   + x[131] + x[132] + x[133] + x[134] = 1
 cover_15: x[11] + x[12] + x[13] + x[14] + x[15] + x[26] + x[27] + x[28]
   + x[29] + x[30] + x[40] + x[41] + x[42] + x[43] + x[44] + x[53] + x[54]
   + x[55] + x[56] + x[57] + x[65] + x[66] + x[67] + x[68] + x[69] + x[76]
   + x[77] + x[78] + x[79] + x[80] + x[86] + x[87] + x[88] + x[89] + x[90]
   + x[95] + x[96] + x[97] + x[98] + x[99] + x[103] + x[104] + x[105]
   + x[106] + x[107] + x[110] + x[111] + x[112] + x[113] + x[114] + x[116]
   + x[117] + x[118] + x[119] + x[120] + x[121] + x[122] + x[123] + x[124]
   + x[125] + x[126] + x[127] + x[128] + x[129] + x[130] + x[131] + x[132]
   + x[133] + x[134] + x[135] = 1
 cover_16: x[12] + x[13] + x[14] + x[15] + x[27] + x[28] + x[29] + x[30]
   + x[41] + x[42] + x[43] + x[44] + x[54] + x[55] + x[56] + x[57] + x[66]
   + x[67] + x[68] + x[69] + x[77] + x[78] + x[79] + x[80] + x[87] + x[88]
   + x[89] + x[90] + x[96] + x[97] + x[98] + x[99] + x[104] + x[105]
   + x[106] + x[107] + x[111] + x[112] + x[113] + x[114] + x[117] + x[118]
   + x[119] + x[120] + x[122] + x[123] + x[124] + x[125] + x[126] + x[127]
   + x[128] + x[129] + x[130] + x[131] + x[132] + x[133] + x[134] + x[135]
   = 1
 cover_17: x[13] + x[14] + x[15] + x[28] + x[29] + x[30] + x[42] + x[43]
   + x[44] + x[55] + x[56] + x[57] + x[67] + x[68] + x[69] + x[78] + x[79]
   + x[80] + x[88] + x[89] + x[90] + x[97] + x[98] + x[99] + x[105]
   + x[106] + x[107] + x[112] + x[113] + x[114] + x[118] + x[119] + x[120]
   + x[123] + x[124] + x[125] + x[127] + x[128] + x[129] + x[130] + x[131]
   + x[132] + x[133] + x[134] + x[135] = 1
 cover_18: x[14] + x[15] + x[29] + x[30] + x[43] + x[44] + x[56] + x[57]
   + x[68] + x[69] + x[79] + x[80] + x[89] + x[90] + x[98] + x[99] + x[106]
   + x[107] + x[113] + x[114] + x[119] + x[120] + x[124] + x[125] + x[128]
   + x[129] + x[131] + x[132] + x[133] + x[134] + x[135] = 1
Bounds
 x[0] <= 1
 x[1] <= 1
 x[2] <= 1
 x[3] <= 1
 x[4] <= 1
 x[5] <= 1
 x[6] <= 1
 x[7] <= 1
 x[8] <= 1
 x[9] <= 1
 x[10] <= 1
 x[11] <= 1
 x[12] <= 1
 x[13] <= 1
 x[14] <= 1
 x[15] <= 1
 x[16] <= 1
 x[17] <= 1
 x[18] <= 1
 x[19] <= 1
 x[20] <= 1
 x[21] <= 1
 x[22] <= 1
 x[23] <= 1
 x[24] <= 1
 x[25] <= 1
 x[26] <= 1
 x[27] <= 1
 x[28] <= 1
 x[29] <= 1
 x[30] <= 1
 x[31] <= 1
 x[32] <= 1
 x[33] <= 1
 x[34] <= 1
 x[35] <= 1
 x[36] <= 1
 x[37] <= 1
 x[38] <= 1
 x[39] <= 1
 x[40] <= 1
 x[41] <= 1
 x[42] <= 1
 x[43] <= 1
 x[44] <= 1
 x[45] <= 1
 x[46] <= 1
 x[47] <= 1
 x[48] <= 1
 x[49] <= 1
 x[50] <= 1
 x[51] <= 1
 x[52] <= 1
 x[53] <= 1
 x[54] <= 1
 x[55] <= 1
 x[56] <= 1
 x[57] <= 1
 x[58] <= 1
 x[59] <= 1
 x[60] <= 1
 x[61] <= 1
 x[62] <= 1
 x[63] <= 1
 x[64] <= 1
 x[65] <= 1
 x[66] <= 1
 x[67] <= 1
 x[68] <= 1
 x[69] <= 1
 x[70] <= 1
 x[71] <= 1
 x[72] <= 1
 x[73] <= 1
 x[74] <= 1
 x[75] <= 1
 x[76] <= 1
 x[77] <= 1
 x[78] <= 1
 x[79] <= 1
 x[80] <= 1
 x[81] <= 1
 x[82] <= 1
 x[83] <= 1
 x[84] <= 1
 x[85] <= 1
 x[86] <= 1
 x[87] <= 1
 x[88] <= 1
 x[89] <= 1
 x[90] <= 1
 x[91] <= 1
 x[92] <= 1
 x[93] <= 1
 x[94] <= 1
 x[95] <= 1
 x[96] <= 1
 x[97] <= 1
 x[98] <= 1
 x[99] <= 1
 x[100] <= 1
 x[101] <= 1
 x[102] <= 1
 x[103] <= 1
 x[104] <= 1
 x[105] <= 1
 x[106] <= 1
 x[107] <= 1
 x[108] <= 1
 x[109] <= 1
 x[110] <= 1
 x[111] <= 1
 x[112] <= 1
 x[113] <= 1
 x[114] <= 1
 x[115] <= 1
 x[116] <= 1
 x[117] <= 1
 x[118] <= 1
 x[119] <= 1
 x[120] <= 1
 x[121] <= 1
 x[122] <= 1
 x[123] <= 1
 x[124] <= 1
 x[125] <= 1
 x[126] <= 1
 x[127] <= 1
 x[128] <= 1
 x[129] <= 1
 x[130] <= 1
 x[131] <= 1
 x[132] <= 1
 x[133] <= 1
 x[134] <= 1
 x[135] <= 1
End
